
     Program PWSCF v.7.5 starts on 29Nov2025 at 17: 6: 4 

     This program is part of the open-source Quantum ESPRESSO suite
     for quantum simulation of materials; please cite
         "P. Giannozzi et al., J. Phys.:Condens. Matter 21 395502 (2009);
         "P. Giannozzi et al., J. Phys.:Condens. Matter 29 465901 (2017);
         "P. Giannozzi et al., J. Chem. Phys. 152 154105 (2020);
          URL http://www.quantum-espresso.org", 
     in publications or presentations arising from this work. More details at
     http://www.quantum-espresso.org/quote

     Parallel version (MPI & OpenMP), running on       1 processor cores
     Number of MPI processes:                 1
     Threads/MPI process:                     1

     MPI processes distributed on     1 nodes
     1830918 MiB available memory on the printing compute node when the environment starts
 
     Reading input from espresso.pwi
Warning: card &CELL ignored
Warning: card &FCP ignored
Warning: card &RISM ignored

     Current dimensions of program PWSCF are:
     Max number of different atomic species (ntypx) = 10
     Max number of k-points (npk) =  40000
     Max angular momentum in pseudopotentials (lmaxx) =  4
     file O.pbesol-n-kjpaw_psl.0.1.UPF: wavefunction(s)  2P renormalized
     file Nb.pbesol-spn-kjpaw_psl.0.3.0.UPF: wavefunction(s)  4S 4P renormalized
     Message from routine setup:
     using ibrav=0 with symmetry is DISCOURAGED, use correct ibrav instead
 
     Subspace diagonalization in iterative solution of the eigenvalue problem:
     a serial algorithm will be used

 
     G-vector sticks info
     --------------------
     sticks:   dense  smooth     PW     G-vecs:    dense   smooth      PW
     Sum        2921    1729    501                99729    46159    7265
 
     Using Slab Decomposition
 


     bravais-lattice index     =            0
     lattice parameter (alat)  =      10.5251  a.u.
     unit-cell volume          =     737.2238 (a.u.)^3
     number of atoms/cell      =           10
     number of atomic types    =            3
     number of electrons       =        68.00
     number of Kohn-Sham states=           34
     kinetic-energy cutoff     =      60.0000  Ry
     charge density cutoff     =     400.0000  Ry
     scf convergence threshold =      1.0E-12
     mixing beta               =       0.7000
     number of iterations used =            8  plain     mixing
     Exchange-correlation= SLA  PW   PSX  PSC
                           (   1   4  10   8   0   0   0)

     GPU acceleration is ACTIVE.  1 visible GPUs per MPI rank


     GPU used by master process:

        Device Number: 0
        Device name: NVIDIA B200
        Compute capability : 100
        Ratio of single to double precision performance  : 16
        Memory Clock Rate (KHz): 3996000
        Memory Bus Width (bits): 7680
        Peak Memory Bandwidth (GB/s): ******

     celldm(1)=  10.525140  celldm(2)=   0.000000  celldm(3)=   0.000000
     celldm(4)=   0.000000  celldm(5)=   0.000000  celldm(6)=   0.000000

     crystal axes: (cart. coord. in units of alat)
               a(1) = (   0.465182   0.268573   0.843490 )  
               a(2) = (  -0.465182   0.268573   0.843490 )  
               a(3) = (   0.000000  -0.537146   0.843490 )  

     reciprocal axes: (cart. coord. in units 2 pi/alat)
               b(1) = (  1.074849  0.620564  0.395184 )  
               b(2) = ( -1.074849  0.620564  0.395184 )  
               b(3) = (  0.000000 -1.241128  0.395184 )  


     PseudoPot. # 1 for Li read from file:
     /home/qhossain/SSSP_1.3.0_PBEsol_efficiency/li_pbesol_v1.4.uspp.F.UPF
     MD5 check sum: aa28d9aeea6a965f2dc95ee9517b3536
     Pseudo is Ultrasoft, Zval =  3.0
     Generated by new atomic code, or converted to UPF format
     Using radial grid of  751 points,  5 beta functions with: 
                l(1) =   0
                l(2) =   0
                l(3) =   0
                l(4) =   1
                l(5) =   1
     Q(r) pseudized with 10 coefficients,  rinner =    1.150   1.150   1.150


     PseudoPot. # 2 for O  read from file:
     /home/qhossain/SSSP_1.3.0_PBEsol_efficiency/O.pbesol-n-kjpaw_psl.0.1.UPF
     MD5 check sum: 81d73d1479e654e5638b0319f0d6c2c7
     Pseudo is Projector augmented-wave + core cor, Zval =  6.0
     Generated using "atomic" code by A. Dal Corso  v.6.0 svn rev. 13079
     Shape of augmentation charge: BESSEL
     Using radial grid of 1095 points,  4 beta functions with: 
                l(1) =   0
                l(2) =   0
                l(3) =   1
                l(4) =   1
     Q(r) pseudized with 0 coefficients 


     PseudoPot. # 3 for Nb read from file:
     /home/qhossain/SSSP_1.3.0_PBEsol_efficiency/Nb.pbesol-spn-kjpaw_psl.0.3.0.UPF
     MD5 check sum: 3501bca1474143575298708b2d32ca28
     Pseudo is Projector augmented-wave + core cor, Zval = 13.0
     Generated using "atomic" code by A. Dal Corso  v.6.0 svn rev. 13079
     Shape of augmentation charge: PSQ
     Using radial grid of 1227 points,  6 beta functions with: 
                l(1) =   0
                l(2) =   0
                l(3) =   1
                l(4) =   1
                l(5) =   2
                l(6) =   2
     Q(r) pseudized with 0 coefficients 


     atomic species   valence    mass     pseudopotential
     Li                3.00     6.94000     Li( 1.00)
     O                 6.00    15.99900     O ( 1.00)
     Nb               13.00    92.90637     Nb( 1.00)

      6 Sym. Ops. (no inversion) found ( 3 have fractional translation)


                                    s                        frac. trans.

      isym =  1     identity                                     

 cryst.   s( 1) = (     1          0          0      )
                  (     0          1          0      )
                  (     0          0          1      )

 cart.    s( 1) = (  1.0000000 -0.0000000  0.0000000 )
                  (  0.0000000  1.0000000  0.0000000 )
                  (  0.0000000  0.0000000  1.0000000 )


      isym =  2     120 deg rotation - cryst. axis [0,0,1]       

 cryst.   s( 2) = (     0          1          0      )
                  (     0          0          1      )
                  (     1          0          0      )

 cart.    s( 2) = ( -0.5000000 -0.8660254 -0.0000000 )
                  (  0.8660254 -0.5000000 -0.0000000 )
                  (  0.0000000 -0.0000000  1.0000000 )


      isym =  3     120 deg rotation - cryst. axis [0,0,-1]      

 cryst.   s( 3) = (     0          0          1      )
                  (     1          0          0      )
                  (     0          1          0      )

 cart.    s( 3) = ( -0.5000000  0.8660254  0.0000000 )
                  ( -0.8660254 -0.5000000 -0.0000000 )
                  (  0.0000000  0.0000000  1.0000000 )


      isym =  4     inv. 180 deg rotation - cart. axis [1,0,0]   

 cryst.   s( 4) = (     0          1          0      )    f =( -0.5000000 )
                  (     1          0          0      )       ( -0.5000000 )
                  (     0          0          1      )       ( -0.5000000 )

 cart.    s( 4) = ( -1.0000000 -0.0000000  0.0000000 )    f =( -0.0000000 )
                  (  0.0000000  1.0000000  0.0000000 )       ( -0.0000000 )
                  (  0.0000000  0.0000000  1.0000000 )       ( -1.2652343 )


      isym =  5     inv. 180 deg rotation - cryst. axis [0,1,0]  

 cryst.   s( 5) = (     1          0          0      )    f =( -0.5000000 )
                  (     0          0          1      )       ( -0.5000000 )
                  (     0          1          0      )       ( -0.5000000 )

 cart.    s( 5) = (  0.5000000  0.8660254  0.0000000 )    f =(  0.0000000 )
                  (  0.8660254 -0.5000000 -0.0000000 )       ( -0.0000000 )
                  (  0.0000000  0.0000000  1.0000000 )       ( -1.2652343 )


      isym =  6     inv. 180 deg rotation - cryst. axis [1,1,0]  

 cryst.   s( 6) = (     0          0          1      )    f =( -0.5000000 )
                  (     0          1          0      )       ( -0.5000000 )
                  (     1          0          0      )       ( -0.5000000 )

 cart.    s( 6) = (  0.5000000 -0.8660254 -0.0000000 )    f =( -0.0000000 )
                  ( -0.8660254 -0.5000000 -0.0000000 )       ( -0.0000000 )
                  (  0.0000000 -0.0000000  1.0000000 )       ( -1.2652343 )


   Cartesian axes

     site n.     atom                  positions (alat units)
         1        Li     tau(   1) = (   0.0000000  -0.0000000   1.9824423  )
         2        Li     tau(   2) = (  -0.0000000  -0.0000000   0.7172080  )
         3        O      tau(   3) = (  -0.2981727  -0.0380285   1.4325084  )
         4        O      tau(   4) = (   0.1820200  -0.2392108   1.4325084  )
         5        O      tau(   5) = (   0.1161526   0.2772394   1.4325084  )
         6        O      tau(   6) = (   0.2831617   0.0293620   1.0107636  )
         7        O      tau(   7) = (  -0.1670091   0.2305443   1.0107636  )
         8        O      tau(   8) = (  -0.1161526  -0.2599063   1.0107636  )
         9        Nb     tau(   9) = (  -0.0000000  -0.0000000   1.2679574  )
        10        Nb     tau(  10) = (  -0.0000000  -0.0000000   0.0027231  )

   Crystallographic axes

     site n.     atom                  positions (cryst. coord.)
         1        Li     tau(   1) = (  0.7834289  0.7834289  0.7834289  )
         2        Li     tau(   2) = (  0.2834289  0.2834289  0.2834289  )
         3        O      tau(   3) = (  0.2220144  0.8629954  0.6133023  )
         4        O      tau(   4) = (  0.6133023  0.2220144  0.8629954  )
         5        O      tau(   5) = (  0.8629954  0.6133023  0.2220144  )
         6        O      tau(   6) = (  0.7220144  0.1133023  0.3629954  )
         7        O      tau(   7) = (  0.3629954  0.7220144  0.1133023  )
         8        O      tau(   8) = (  0.1133023  0.3629954  0.7220144  )
         9        Nb     tau(   9) = (  0.5010761  0.5010761  0.5010761  )
        10        Nb     tau(  10) = (  0.0010761  0.0010761  0.0010761  )

     number of k points=    32
                       cart. coord. in units 2pi/alat
        k(    1) = (   0.0000000   0.0000000   0.0000000), wk =   0.0092593
        k(    2) = (   0.0000000  -0.2068547   0.0658640), wk =   0.0555556
        k(    3) = (   0.0000000  -0.4137094   0.1317279), wk =   0.0555556
        k(    4) = (  -0.0000000   0.6205642  -0.1975919), wk =   0.0277778
        k(    5) = (  -0.1791414  -0.1034274   0.1317279), wk =   0.0555556
        k(    6) = (  -0.1791414  -0.3102821   0.1975919), wk =   0.1111111
        k(    7) = (  -0.1791414   0.7239915  -0.1317279), wk =   0.1111111
        k(    8) = (  -0.1791414   0.5171368  -0.0658640), wk =   0.1111111
        k(    9) = (  -0.1791414   0.3102821   0.0000000), wk =   0.0555556
        k(   10) = (  -0.3582829  -0.2068547   0.2634558), wk =   0.0555556
        k(   11) = (  -0.3582829   0.8274189  -0.0658640), wk =   0.1111111
        k(   12) = (  -0.3582829   0.6205642   0.0000000), wk =   0.0555556
        k(   13) = (   0.5374243   0.3102821  -0.3951837), wk =   0.0277778
        k(   14) = (   0.0000000   0.0000000   0.1975919), wk =   0.0185185
        k(   15) = (   0.0000000  -0.2068547   0.2634558), wk =   0.0555556
        k(   16) = (   0.0000000   0.8274189  -0.0658640), wk =   0.0555556
        k(   17) = (   0.0000000   0.6205642   0.0000000), wk =   0.0555556
        k(   18) = (   0.0000000   0.4137094   0.0658640), wk =   0.0555556
        k(   19) = (  -0.1791414  -0.1034274   0.3293198), wk =   0.0555556
        k(   20) = (  -0.1791414   0.9308462   0.0000000), wk =   0.1111111
        k(   21) = (  -0.1791414   0.7239915   0.0658640), wk =   0.1111111
        k(   22) = (  -0.1791414   0.5171368   0.1317279), wk =   0.1111111
        k(   23) = (   0.7165658   0.4137094  -0.3293198), wk =   0.0555556
        k(   24) = (   0.7165658   0.2068547  -0.2634558), wk =   0.1111111
        k(   25) = (   0.7165658  -0.0000000  -0.1975919), wk =   0.0555556
        k(   26) = (   0.5374243   0.3102821  -0.1975919), wk =   0.0555556
        k(   27) = (   0.0000000   0.0000000   0.3951837), wk =   0.0185185
        k(   28) = (   0.0000000   1.0342736   0.0658640), wk =   0.0555556
        k(   29) = (   0.0000000   0.8274189   0.1317279), wk =   0.0555556
        k(   30) = (   0.8957072   0.5171368  -0.2634558), wk =   0.0555556
        k(   31) = (   0.8957072   0.3102821  -0.1975919), wk =   0.0555556
        k(   32) = (  -0.0000000   0.0000000  -0.5927756), wk =   0.0092593

                       cryst. coord.
        k(    1) = (   0.0000000   0.0000000   0.0000000), wk =   0.0092593
        k(    2) = (  -0.0000000  -0.0000000   0.1666667), wk =   0.0555556
        k(    3) = (  -0.0000000  -0.0000000   0.3333333), wk =   0.0555556
        k(    4) = (   0.0000000   0.0000000  -0.5000000), wk =   0.0277778
        k(    5) = (   0.0000000   0.1666667   0.1666667), wk =   0.0555556
        k(    6) = (  -0.0000000   0.1666667   0.3333333), wk =   0.1111111
        k(    7) = (   0.0000000   0.1666667  -0.5000000), wk =   0.1111111
        k(    8) = (   0.0000000   0.1666667  -0.3333333), wk =   0.1111111
        k(    9) = (   0.0000000   0.1666667  -0.1666667), wk =   0.0555556
        k(   10) = (   0.0000000   0.3333333   0.3333333), wk =   0.0555556
        k(   11) = (   0.0000000   0.3333333  -0.5000000), wk =   0.1111111
        k(   12) = (   0.0000000   0.3333333  -0.3333333), wk =   0.0555556
        k(   13) = (  -0.0000000  -0.5000000  -0.5000000), wk =   0.0277778
        k(   14) = (   0.1666667   0.1666667   0.1666667), wk =   0.0185185
        k(   15) = (   0.1666667   0.1666667   0.3333333), wk =   0.0555556
        k(   16) = (   0.1666667   0.1666667  -0.5000000), wk =   0.0555556
        k(   17) = (   0.1666667   0.1666667  -0.3333333), wk =   0.0555556
        k(   18) = (   0.1666667   0.1666667  -0.1666667), wk =   0.0555556
        k(   19) = (   0.1666667   0.3333333   0.3333333), wk =   0.0555556
        k(   20) = (   0.1666667   0.3333333  -0.5000000), wk =   0.1111111
        k(   21) = (   0.1666667   0.3333333  -0.3333333), wk =   0.1111111
        k(   22) = (   0.1666667   0.3333333  -0.1666667), wk =   0.1111111
        k(   23) = (   0.1666667  -0.5000000  -0.5000000), wk =   0.0555556
        k(   24) = (   0.1666667  -0.5000000  -0.3333333), wk =   0.1111111
        k(   25) = (   0.1666667  -0.5000000  -0.1666667), wk =   0.0555556
        k(   26) = (   0.1666667  -0.3333333  -0.3333333), wk =   0.0555556
        k(   27) = (   0.3333333   0.3333333   0.3333333), wk =   0.0185185
        k(   28) = (   0.3333333   0.3333333  -0.5000000), wk =   0.0555556
        k(   29) = (   0.3333333   0.3333333  -0.3333333), wk =   0.0555556
        k(   30) = (   0.3333333  -0.5000000  -0.5000000), wk =   0.0555556
        k(   31) = (   0.3333333  -0.5000000  -0.3333333), wk =   0.0555556
        k(   32) = (  -0.5000000  -0.5000000  -0.5000000), wk =   0.0092593

     Dense  grid:    99729 G-vectors     FFT dimensions: (  72,  72,  72)

     Smooth grid:    46159 G-vectors     FFT dimensions: (  54,  54,  54)

     Dynamical RAM for                 wfc:       3.00 MB

     Dynamical RAM for     wfc (w. buffer):      99.06 MB

     Dynamical RAM for           str. fact:       4.57 MB

     Dynamical RAM for           local pot:       0.00 MB

     Dynamical RAM for          nlocal pot:       9.01 MB

     Dynamical RAM for                qrad:       4.82 MB

     Dynamical RAM for          rho,v,vnew:      13.11 MB

     Dynamical RAM for               rhoin:       4.37 MB

     Dynamical RAM for            rho*nmix:      24.35 MB

     Dynamical RAM for           G-vectors:       6.06 MB

     Dynamical RAM for          h,s,v(r/c):       0.21 MB

     Dynamical RAM for          <psi|beta>:       0.05 MB

     Dynamical RAM for                 psi:       6.00 MB

     Dynamical RAM for                hpsi:       6.00 MB

     Dynamical RAM for                spsi:       6.00 MB

     Dynamical RAM for      wfcinit/wfcrot:       6.03 MB

     Dynamical RAM for           addusdens:     292.17 MB

     Dynamical RAM for          addusforce:     308.18 MB

     Dynamical RAM for         addusstress:     305.87 MB

     Estimated static dynamical RAM per process >     161.31 MB

     Estimated max dynamical RAM per process >     493.83 MB

     Check: negative core charge=   -0.000004

     Initial potential from superposition of free atoms

     starting charge      67.0945, renormalised to      68.0000
     Starting wfcs are   54 randomized atomic wfcs
     Checking if some PAW data can be deallocated... 

     total cpu time spent up to now is        1.1 secs

     per-process dynamical memory:   561.4 Mb

     Self-consistent Calculation
[tb_dev] Currently allocated     1.86E+00 Mbytes, locked:    0 /   3
[tb_pin] Currently allocated     0.00E+00 Mbytes, locked:    0 /   0

     iteration #  1     ecut=    60.00 Ry     beta= 0.70
     Davidson diagonalization with overlap

---- Real-time Memory Report at c_bands before calling an iterative solver
           988 MiB given to the printing process from OS
           548 MiB allocation reported by mallinfo(arena+hblkhd)
       1830480 MiB available memory on the node where the printing process lives
     GPU memory used/free/total (MiB): 2293 / 180348 / 182642
------------------
     ethr =  1.00E-02,  avg # of iterations =  1.1

     total cpu time spent up to now is        1.6 secs

     total energy              =    -934.39438749 Ry
     estimated scf accuracy    <       4.52889006 Ry
[tb_dev] Currently allocated     0.00E+00 Mbytes, locked:    0 /   0
[tb_pin] Currently allocated     0.00E+00 Mbytes, locked:    0 /   0

     iteration #  2     ecut=    60.00 Ry     beta= 0.70
     Davidson diagonalization with overlap

---- Real-time Memory Report at c_bands before calling an iterative solver
          1037 MiB given to the printing process from OS
           625 MiB allocation reported by mallinfo(arena+hblkhd)
       1830407 MiB available memory on the node where the printing process lives
     GPU memory used/free/total (MiB): 2293 / 180348 / 182642
------------------
     ethr =  6.66E-03,  avg # of iterations =  8.6

     total cpu time spent up to now is        2.7 secs

     total energy              =    -933.54364745 Ry
     estimated scf accuracy    <      17.66958634 Ry
[tb_dev] Currently allocated     0.00E+00 Mbytes, locked:    0 /   0
[tb_pin] Currently allocated     0.00E+00 Mbytes, locked:    0 /   0

     iteration #  3     ecut=    60.00 Ry     beta= 0.70
     Davidson diagonalization with overlap

---- Real-time Memory Report at c_bands before calling an iterative solver
          1042 MiB given to the printing process from OS
           629 MiB allocation reported by mallinfo(arena+hblkhd)
       1830476 MiB available memory on the node where the printing process lives
     GPU memory used/free/total (MiB): 2295 / 180346 / 182642
------------------
     ethr =  6.66E-03,  avg # of iterations =  6.2

     total cpu time spent up to now is        3.5 secs

     total energy              =    -936.75331151 Ry
     estimated scf accuracy    <       0.06834960 Ry
[tb_dev] Currently allocated     0.00E+00 Mbytes, locked:    0 /   0
[tb_pin] Currently allocated     0.00E+00 Mbytes, locked:    0 /   0

     iteration #  4     ecut=    60.00 Ry     beta= 0.70
     Davidson diagonalization with overlap

---- Real-time Memory Report at c_bands before calling an iterative solver
          1043 MiB given to the printing process from OS
           618 MiB allocation reported by mallinfo(arena+hblkhd)
       1830511 MiB available memory on the node where the printing process lives
     GPU memory used/free/total (MiB): 2295 / 180346 / 182642
------------------
     ethr =  1.01E-04,  avg # of iterations =  7.2

     total cpu time spent up to now is        4.4 secs

     total energy              =    -936.69518076 Ry
     estimated scf accuracy    <       0.28902358 Ry
[tb_dev] Currently allocated     0.00E+00 Mbytes, locked:    0 /   0
[tb_pin] Currently allocated     0.00E+00 Mbytes, locked:    0 /   0

     iteration #  5     ecut=    60.00 Ry     beta= 0.70
     Davidson diagonalization with overlap

---- Real-time Memory Report at c_bands before calling an iterative solver
          1049 MiB given to the printing process from OS
           631 MiB allocation reported by mallinfo(arena+hblkhd)
       1830485 MiB available memory on the node where the printing process lives
     GPU memory used/free/total (MiB): 2295 / 180346 / 182642
------------------
     ethr =  1.01E-04,  avg # of iterations =  7.9

     total cpu time spent up to now is        5.5 secs

     total energy              =    -936.79476377 Ry
     estimated scf accuracy    <       0.56163924 Ry
[tb_dev] Currently allocated     0.00E+00 Mbytes, locked:    0 /   0
[tb_pin] Currently allocated     0.00E+00 Mbytes, locked:    0 /   0

     iteration #  6     ecut=    60.00 Ry     beta= 0.70
     Davidson diagonalization with overlap

---- Real-time Memory Report at c_bands before calling an iterative solver
          1052 MiB given to the printing process from OS
           634 MiB allocation reported by mallinfo(arena+hblkhd)
       1830545 MiB available memory on the node where the printing process lives
     GPU memory used/free/total (MiB): 2295 / 180346 / 182642
------------------
     ethr =  1.01E-04,  avg # of iterations =  6.2

     total cpu time spent up to now is        6.3 secs

     total energy              =    -936.81519006 Ry
     estimated scf accuracy    <       0.06175265 Ry
[tb_dev] Currently allocated     0.00E+00 Mbytes, locked:    0 /   0
[tb_pin] Currently allocated     0.00E+00 Mbytes, locked:    0 /   0

     iteration #  7     ecut=    60.00 Ry     beta= 0.70
     Davidson diagonalization with overlap

---- Real-time Memory Report at c_bands before calling an iterative solver
          1054 MiB given to the printing process from OS
           636 MiB allocation reported by mallinfo(arena+hblkhd)
       1830550 MiB available memory on the node where the printing process lives
     GPU memory used/free/total (MiB): 2295 / 180346 / 182642
------------------
     ethr =  9.08E-05,  avg # of iterations =  4.8

     total cpu time spent up to now is        7.0 secs

     total energy              =    -936.83163150 Ry
     estimated scf accuracy    <       0.00006572 Ry
[tb_dev] Currently allocated     0.00E+00 Mbytes, locked:    0 /   0
[tb_pin] Currently allocated     0.00E+00 Mbytes, locked:    0 /   0

     iteration #  8     ecut=    60.00 Ry     beta= 0.70
     Davidson diagonalization with overlap

---- Real-time Memory Report at c_bands before calling an iterative solver
          1056 MiB given to the printing process from OS
           637 MiB allocation reported by mallinfo(arena+hblkhd)
       1830671 MiB available memory on the node where the printing process lives
     GPU memory used/free/total (MiB): 2295 / 180346 / 182642
------------------
     c_bands:  1 eigenvalues not converged
     c_bands:  5 eigenvalues not converged
     ethr =  9.66E-08,  avg # of iterations = 15.2

     total cpu time spent up to now is        8.6 secs

     total energy              =    -936.83347262 Ry
     estimated scf accuracy    <       0.00430498 Ry
[tb_dev] Currently allocated     0.00E+00 Mbytes, locked:    0 /   0
[tb_pin] Currently allocated     0.00E+00 Mbytes, locked:    0 /   0

     iteration #  9     ecut=    60.00 Ry     beta= 0.70
     Davidson diagonalization with overlap

---- Real-time Memory Report at c_bands before calling an iterative solver
          1058 MiB given to the printing process from OS
           639 MiB allocation reported by mallinfo(arena+hblkhd)
       1830645 MiB available memory on the node where the printing process lives
     GPU memory used/free/total (MiB): 2295 / 180346 / 182642
------------------
     ethr =  9.66E-08,  avg # of iterations =  6.8

     total cpu time spent up to now is        9.5 secs

     total energy              =    -936.83296424 Ry
     estimated scf accuracy    <       0.00168568 Ry
[tb_dev] Currently allocated     0.00E+00 Mbytes, locked:    0 /   0
[tb_pin] Currently allocated     0.00E+00 Mbytes, locked:    0 /   0

     iteration # 10     ecut=    60.00 Ry     beta= 0.70
     Davidson diagonalization with overlap

---- Real-time Memory Report at c_bands before calling an iterative solver
          1059 MiB given to the printing process from OS
           641 MiB allocation reported by mallinfo(arena+hblkhd)
       1830633 MiB available memory on the node where the printing process lives
     GPU memory used/free/total (MiB): 2295 / 180346 / 182642
------------------
     ethr =  9.66E-08,  avg # of iterations =  7.8

     total cpu time spent up to now is       10.5 secs

     total energy              =    -936.83324779 Ry
     estimated scf accuracy    <       0.00000358 Ry
[tb_dev] Currently allocated     0.00E+00 Mbytes, locked:    0 /   0
[tb_pin] Currently allocated     0.00E+00 Mbytes, locked:    0 /   0

     iteration # 11     ecut=    60.00 Ry     beta= 0.70
     Davidson diagonalization with overlap

---- Real-time Memory Report at c_bands before calling an iterative solver
          1059 MiB given to the printing process from OS
           641 MiB allocation reported by mallinfo(arena+hblkhd)
       1830618 MiB available memory on the node where the printing process lives
     GPU memory used/free/total (MiB): 2295 / 180346 / 182642
------------------
     ethr =  5.26E-09,  avg # of iterations =  8.5

     total cpu time spent up to now is       11.6 secs

     total energy              =    -936.83324911 Ry
     estimated scf accuracy    <       0.00002593 Ry
[tb_dev] Currently allocated     0.00E+00 Mbytes, locked:    0 /   0
[tb_pin] Currently allocated     0.00E+00 Mbytes, locked:    0 /   0

     iteration # 12     ecut=    60.00 Ry     beta= 0.70
     Davidson diagonalization with overlap

---- Real-time Memory Report at c_bands before calling an iterative solver
          1060 MiB given to the printing process from OS
           641 MiB allocation reported by mallinfo(arena+hblkhd)
       1830617 MiB available memory on the node where the printing process lives
     GPU memory used/free/total (MiB): 2295 / 180346 / 182642
------------------
     ethr =  5.26E-09,  avg # of iterations =  6.0

     total cpu time spent up to now is       12.4 secs

     total energy              =    -936.83325306 Ry
     estimated scf accuracy    <       0.00000030 Ry
[tb_dev] Currently allocated     0.00E+00 Mbytes, locked:    0 /   0
[tb_pin] Currently allocated     0.00E+00 Mbytes, locked:    0 /   0

     iteration # 13     ecut=    60.00 Ry     beta= 0.70
     Davidson diagonalization with overlap

---- Real-time Memory Report at c_bands before calling an iterative solver
          1060 MiB given to the printing process from OS
           641 MiB allocation reported by mallinfo(arena+hblkhd)
       1830182 MiB available memory on the node where the printing process lives
     GPU memory used/free/total (MiB): 2295 / 180346 / 182642
------------------
     ethr =  4.46E-10,  avg # of iterations =  6.8

     total cpu time spent up to now is       13.3 secs

     total energy              =    -936.83325332 Ry
     estimated scf accuracy    <       0.00000039 Ry
[tb_dev] Currently allocated     0.00E+00 Mbytes, locked:    0 /   0
[tb_pin] Currently allocated     0.00E+00 Mbytes, locked:    0 /   0

     iteration # 14     ecut=    60.00 Ry     beta= 0.70
     Davidson diagonalization with overlap

---- Real-time Memory Report at c_bands before calling an iterative solver
          1060 MiB given to the printing process from OS
           641 MiB allocation reported by mallinfo(arena+hblkhd)
       1830094 MiB available memory on the node where the printing process lives
     GPU memory used/free/total (MiB): 2295 / 180346 / 182642
------------------
     ethr =  4.46E-10,  avg # of iterations =  2.1

     total cpu time spent up to now is       13.8 secs

     total energy              =    -936.83325332 Ry
     estimated scf accuracy    <       0.00000009 Ry
[tb_dev] Currently allocated     0.00E+00 Mbytes, locked:    0 /   0
[tb_pin] Currently allocated     0.00E+00 Mbytes, locked:    0 /   0

     iteration # 15     ecut=    60.00 Ry     beta= 0.70
     Davidson diagonalization with overlap

---- Real-time Memory Report at c_bands before calling an iterative solver
          1060 MiB given to the printing process from OS
           641 MiB allocation reported by mallinfo(arena+hblkhd)
       1830112 MiB available memory on the node where the printing process lives
     GPU memory used/free/total (MiB): 2295 / 180346 / 182642
------------------
     ethr =  1.29E-10,  avg # of iterations =  5.1

     total cpu time spent up to now is       14.5 secs

     total energy              =    -936.83325336 Ry
     estimated scf accuracy    <          1.8E-09 Ry
[tb_dev] Currently allocated     0.00E+00 Mbytes, locked:    0 /   0
[tb_pin] Currently allocated     0.00E+00 Mbytes, locked:    0 /   0

     iteration # 16     ecut=    60.00 Ry     beta= 0.70
     Davidson diagonalization with overlap

---- Real-time Memory Report at c_bands before calling an iterative solver
          1060 MiB given to the printing process from OS
           641 MiB allocation reported by mallinfo(arena+hblkhd)
       1830074 MiB available memory on the node where the printing process lives
     GPU memory used/free/total (MiB): 2295 / 180346 / 182642
------------------
     ethr =  2.60E-12,  avg # of iterations =  6.3

     total cpu time spent up to now is       15.4 secs

     total energy              =    -936.83325336 Ry
     estimated scf accuracy    <          1.2E-10 Ry
[tb_dev] Currently allocated     0.00E+00 Mbytes, locked:    0 /   0
[tb_pin] Currently allocated     0.00E+00 Mbytes, locked:    0 /   0

     iteration # 17     ecut=    60.00 Ry     beta= 0.70
     Davidson diagonalization with overlap

---- Real-time Memory Report at c_bands before calling an iterative solver
          1060 MiB given to the printing process from OS
           641 MiB allocation reported by mallinfo(arena+hblkhd)
       1830082 MiB available memory on the node where the printing process lives
     GPU memory used/free/total (MiB): 2295 / 180346 / 182642
------------------
     ethr =  1.69E-13,  avg # of iterations =  8.0

     total cpu time spent up to now is       16.4 secs

     total energy              =    -936.83325336 Ry
     estimated scf accuracy    <          1.8E-09 Ry
[tb_dev] Currently allocated     0.00E+00 Mbytes, locked:    0 /   0
[tb_pin] Currently allocated     0.00E+00 Mbytes, locked:    0 /   0

     iteration # 18     ecut=    60.00 Ry     beta= 0.70
     Davidson diagonalization with overlap

---- Real-time Memory Report at c_bands before calling an iterative solver
          1060 MiB given to the printing process from OS
           641 MiB allocation reported by mallinfo(arena+hblkhd)
       1830134 MiB available memory on the node where the printing process lives
     GPU memory used/free/total (MiB): 2295 / 180346 / 182642
------------------
     ethr =  1.69E-13,  avg # of iterations =  6.0

     total cpu time spent up to now is       17.2 secs

     total energy              =    -936.83325336 Ry
     estimated scf accuracy    <          3.5E-10 Ry
[tb_dev] Currently allocated     0.00E+00 Mbytes, locked:    0 /   0
[tb_pin] Currently allocated     0.00E+00 Mbytes, locked:    0 /   0

     iteration # 19     ecut=    60.00 Ry     beta= 0.70
     Davidson diagonalization with overlap

---- Real-time Memory Report at c_bands before calling an iterative solver
          1060 MiB given to the printing process from OS
           641 MiB allocation reported by mallinfo(arena+hblkhd)
       1830019 MiB available memory on the node where the printing process lives
     GPU memory used/free/total (MiB): 2295 / 180346 / 182642
------------------
     ethr =  1.69E-13,  avg # of iterations =  6.1

     total cpu time spent up to now is       18.0 secs

     total energy              =    -936.83325336 Ry
     estimated scf accuracy    <          3.4E-12 Ry
[tb_dev] Currently allocated     0.00E+00 Mbytes, locked:    0 /   0
[tb_pin] Currently allocated     0.00E+00 Mbytes, locked:    0 /   0

     iteration # 20     ecut=    60.00 Ry     beta= 0.70
     Davidson diagonalization with overlap

---- Real-time Memory Report at c_bands before calling an iterative solver
          1060 MiB given to the printing process from OS
           641 MiB allocation reported by mallinfo(arena+hblkhd)
       1830031 MiB available memory on the node where the printing process lives
     GPU memory used/free/total (MiB): 2295 / 180346 / 182642
------------------
     ethr =  1.00E-13,  avg # of iterations =  1.0

     total cpu time spent up to now is       18.4 secs

     total energy              =    -936.83325336 Ry
     estimated scf accuracy    <          3.6E-12 Ry
[tb_dev] Currently allocated     0.00E+00 Mbytes, locked:    0 /   0
[tb_pin] Currently allocated     0.00E+00 Mbytes, locked:    0 /   0

     iteration # 21     ecut=    60.00 Ry     beta= 0.70
     Davidson diagonalization with overlap

---- Real-time Memory Report at c_bands before calling an iterative solver
          1060 MiB given to the printing process from OS
           641 MiB allocation reported by mallinfo(arena+hblkhd)
       1830028 MiB available memory on the node where the printing process lives
     GPU memory used/free/total (MiB): 2295 / 180346 / 182642
------------------
     ethr =  1.00E-13,  avg # of iterations =  1.0

     total cpu time spent up to now is       18.8 secs

     total energy              =    -936.83325336 Ry
     estimated scf accuracy    <          2.9E-12 Ry
[tb_dev] Currently allocated     0.00E+00 Mbytes, locked:    0 /   0
[tb_pin] Currently allocated     0.00E+00 Mbytes, locked:    0 /   0

     iteration # 22     ecut=    60.00 Ry     beta= 0.70
     Davidson diagonalization with overlap

---- Real-time Memory Report at c_bands before calling an iterative solver
          1060 MiB given to the printing process from OS
           641 MiB allocation reported by mallinfo(arena+hblkhd)
       1830026 MiB available memory on the node where the printing process lives
     GPU memory used/free/total (MiB): 2295 / 180346 / 182642
------------------
     ethr =  1.00E-13,  avg # of iterations =  1.0

     total cpu time spent up to now is       19.2 secs

     total energy              =    -936.83325336 Ry
     estimated scf accuracy    <          1.4E-12 Ry
[tb_dev] Currently allocated     0.00E+00 Mbytes, locked:    0 /   0
[tb_pin] Currently allocated     0.00E+00 Mbytes, locked:    0 /   0

     iteration # 23     ecut=    60.00 Ry     beta= 0.70
     Davidson diagonalization with overlap

---- Real-time Memory Report at c_bands before calling an iterative solver
          1060 MiB given to the printing process from OS
           641 MiB allocation reported by mallinfo(arena+hblkhd)
       1830039 MiB available memory on the node where the printing process lives
     GPU memory used/free/total (MiB): 2295 / 180346 / 182642
------------------
     ethr =  1.00E-13,  avg # of iterations =  1.0

     total cpu time spent up to now is       19.6 secs

     End of self-consistent calculation

          k = 0.0000 0.0000 0.0000 (  5757 PWs)   bands (ev):

   -47.3774 -47.3643 -35.0809 -35.0784 -23.6722 -23.6722 -23.6092 -23.5316
   -23.5316 -23.4397  -9.9811  -9.3184  -9.3184  -8.4776  -8.2733  -8.2733
     2.4347   2.4347   2.6363   2.7554   2.7554   3.5312   4.7401   4.7631
     4.7631   5.6262   5.9958   5.9958   6.1565   6.2161   6.2161   6.3312
     6.8430   6.8430

     occupation numbers 
     1.0000   1.0000   1.0000   1.0000   1.0000   1.0000   1.0000   1.0000
     1.0000   1.0000   1.0000   1.0000   1.0000   1.0000   1.0000   1.0000
     1.0000   1.0000   1.0000   1.0000   1.0000   1.0000   1.0000   1.0000
     1.0000   1.0000   1.0000   1.0000   1.0000   1.0000   1.0000   1.0000
     1.0000   1.0000

          k = 0.0000-0.2069 0.0659 (  5756 PWs)   bands (ev):

   -47.3765 -47.3651 -35.0807 -35.0785 -23.6644 -23.6632 -23.5976 -23.5424
   -23.5415 -23.4509  -9.8772  -9.2625  -9.2597  -8.5493  -8.3744  -8.3555
     2.3973   2.4952   2.8207   2.9400   2.9910   3.5974   4.4340   4.5262
     4.5976   5.5885   5.7388   6.0157   6.0270   6.3140   6.3809   6.4303
     6.7041   6.7558

     occupation numbers 
     1.0000   1.0000   1.0000   1.0000   1.0000   1.0000   1.0000   1.0000
     1.0000   1.0000   1.0000   1.0000   1.0000   1.0000   1.0000   1.0000
     1.0000   1.0000   1.0000   1.0000   1.0000   1.0000   1.0000   1.0000
     1.0000   1.0000   1.0000   1.0000   1.0000   1.0000   1.0000   1.0000
     1.0000   1.0000

          k = 0.0000-0.4137 0.1317 (  5784 PWs)   bands (ev):

   -47.3741 -47.3675 -35.0803 -35.0790 -23.6416 -23.6385 -23.5709 -23.5685
   -23.5660 -23.4818  -9.5913  -9.1131  -9.0980  -8.7725  -8.6107  -8.5659
     2.5577   2.7197   3.0791   3.4134   3.4938   3.7367   3.7915   4.1422
     4.3552   5.0272   5.3734   5.6651   6.2684   6.3342   6.3870   6.4972
     6.6184   6.7479

     occupation numbers 
     1.0000   1.0000   1.0000   1.0000   1.0000   1.0000   1.0000   1.0000
     1.0000   1.0000   1.0000   1.0000   1.0000   1.0000   1.0000   1.0000
     1.0000   1.0000   1.0000   1.0000   1.0000   1.0000   1.0000   1.0000
     1.0000   1.0000   1.0000   1.0000   1.0000   1.0000   1.0000   1.0000
     1.0000   1.0000

          k =-0.0000 0.6206-0.1976 (  5768 PWs)   bands (ev):

   -47.3708 -47.3708 -35.0797 -35.0797 -23.6078 -23.6078 -23.6038 -23.6038
   -23.5239 -23.5239  -9.2070  -9.2070  -8.8843  -8.8843  -8.8026  -8.8026
     2.9191   2.9191   3.1905   3.1905   3.6158   3.6158   4.0895   4.0895
     4.5948   4.5948   5.0034   5.0034   6.4102   6.4102   6.5317   6.5317
     6.6205   6.6205

     occupation numbers 
     1.0000   1.0000   1.0000   1.0000   1.0000   1.0000   1.0000   1.0000
     1.0000   1.0000   1.0000   1.0000   1.0000   1.0000   1.0000   1.0000
     1.0000   1.0000   1.0000   1.0000   1.0000   1.0000   1.0000   1.0000
     1.0000   1.0000   1.0000   1.0000   1.0000   1.0000   1.0000   1.0000
     1.0000   1.0000

          k =-0.1791-0.1034 0.1317 (  5784 PWs)   bands (ev):

   -47.3763 -47.3653 -35.0807 -35.0786 -23.6746 -23.6554 -23.5879 -23.5628
   -23.5298 -23.4497  -9.8682  -9.3007  -9.1726  -8.6472  -8.3845  -8.3089
     2.4255   2.5093   2.6939   3.0317   3.0529   3.7537   4.0465   4.7009
     4.7672   5.5864   5.6892   5.9179   6.0544   6.1531   6.2893   6.4335
     6.7216   6.7725

     occupation numbers 
     1.0000   1.0000   1.0000   1.0000   1.0000   1.0000   1.0000   1.0000
     1.0000   1.0000   1.0000   1.0000   1.0000   1.0000   1.0000   1.0000
     1.0000   1.0000   1.0000   1.0000   1.0000   1.0000   1.0000   1.0000
     1.0000   1.0000   1.0000   1.0000   1.0000   1.0000   1.0000   1.0000
     1.0000   1.0000

          k =-0.1791-0.3103 0.1976 (  5779 PWs)   bands (ev):

   -47.3746 -47.3670 -35.0804 -35.0789 -23.6682 -23.6405 -23.5988 -23.5541
   -23.5390 -23.4645  -9.6976  -9.2292  -8.9989  -8.8772  -8.4894  -8.4282
     2.3869   2.6557   3.0100   3.2102   3.3700   3.5911   4.0928   4.3016
     4.6980   5.2303   5.5575   5.8761   5.9770   6.1328   6.2563   6.4676
     6.5912   6.7557

     occupation numbers 
     1.0000   1.0000   1.0000   1.0000   1.0000   1.0000   1.0000   1.0000
     1.0000   1.0000   1.0000   1.0000   1.0000   1.0000   1.0000   1.0000
     1.0000   1.0000   1.0000   1.0000   1.0000   1.0000   1.0000   1.0000
     1.0000   1.0000   1.0000   1.0000   1.0000   1.0000   1.0000   1.0000
     1.0000   1.0000

          k =-0.1791 0.7240-0.1317 (  5793 PWs)   bands (ev):

   -47.3719 -47.3697 -35.0799 -35.0795 -23.6453 -23.6350 -23.6123 -23.5665
   -23.5148 -23.4956  -9.3988  -9.2110  -9.0613  -8.7272  -8.7096  -8.6476
     2.5669   2.7717   2.9992   3.4391   3.6409   3.7344   3.9420   4.2232
     4.4501   4.8462   5.2712   5.6093   6.0679   6.2698   6.3112   6.4273
     6.6059   6.6954

     occupation numbers 
     1.0000   1.0000   1.0000   1.0000   1.0000   1.0000   1.0000   1.0000
     1.0000   1.0000   1.0000   1.0000   1.0000   1.0000   1.0000   1.0000
     1.0000   1.0000   1.0000   1.0000   1.0000   1.0000   1.0000   1.0000
     1.0000   1.0000   1.0000   1.0000   1.0000   1.0000   1.0000   1.0000
     1.0000   1.0000

          k =-0.1791 0.5171-0.0659 (  5791 PWs)   bands (ev):

   -47.3727 -47.3689 -35.0801 -35.0793 -23.6602 -23.6102 -23.6033 -23.5768
   -23.5362 -23.4825  -9.4970  -9.0754  -8.9876  -8.8865  -8.8097  -8.4951
     2.4916   2.9272   3.0674   3.1984   3.3968   3.7927   4.0305   4.2317
     4.5507   4.9431   5.2014   5.7990   5.9657   6.1712   6.3592   6.5335
     6.5925   6.7286

     occupation numbers 
     1.0000   1.0000   1.0000   1.0000   1.0000   1.0000   1.0000   1.0000
     1.0000   1.0000   1.0000   1.0000   1.0000   1.0000   1.0000   1.0000
     1.0000   1.0000   1.0000   1.0000   1.0000   1.0000   1.0000   1.0000
     1.0000   1.0000   1.0000   1.0000   1.0000   1.0000   1.0000   1.0000
     1.0000   1.0000

          k =-0.1791 0.3103 0.0000 (  5768 PWs)   bands (ev):

   -47.3752 -47.3664 -35.0805 -35.0788 -23.6687 -23.6387 -23.5754 -23.5719
   -23.5478 -23.4621  -9.7367  -9.2128  -9.1183  -8.6999  -8.5750  -8.3701
     2.4136   2.6153   2.9314   3.0412   3.4240   3.7763   3.9143   4.1185
     4.8127   5.4295   5.6408   5.8047   6.1027   6.2165   6.3356   6.4919
     6.5601   6.7837

     occupation numbers 
     1.0000   1.0000   1.0000   1.0000   1.0000   1.0000   1.0000   1.0000
     1.0000   1.0000   1.0000   1.0000   1.0000   1.0000   1.0000   1.0000
     1.0000   1.0000   1.0000   1.0000   1.0000   1.0000   1.0000   1.0000
     1.0000   1.0000   1.0000   1.0000   1.0000   1.0000   1.0000   1.0000
     1.0000   1.0000

          k =-0.3583-0.2069 0.2635 (  5785 PWs)   bands (ev):

   -47.3741 -47.3675 -35.0803 -35.0790 -23.6795 -23.6476 -23.6369 -23.5266
   -23.5180 -23.4562  -9.7033  -9.2658  -9.1076  -8.7838  -8.4452  -8.3840
     2.3834   2.5587   2.7346   2.8727   3.4771   3.8165   4.4096   4.6136
     5.0240   5.3265   5.5585   5.7373   5.7549   6.0254   6.0763   6.4122
     6.4259   6.6901

     occupation numbers 
     1.0000   1.0000   1.0000   1.0000   1.0000   1.0000   1.0000   1.0000
     1.0000   1.0000   1.0000   1.0000   1.0000   1.0000   1.0000   1.0000
     1.0000   1.0000   1.0000   1.0000   1.0000   1.0000   1.0000   1.0000
     1.0000   1.0000   1.0000   1.0000   1.0000   1.0000   1.0000   1.0000
     1.0000   1.0000

          k =-0.3583 0.8274-0.0659 (  5792 PWs)   bands (ev):

   -47.3727 -47.3689 -35.0801 -35.0793 -23.6724 -23.6644 -23.6372 -23.5360
   -23.4892 -23.4676  -9.5739  -9.3023  -9.1923  -8.5990  -8.5336  -8.4891
     2.3469   2.4722   2.6945   3.0218   3.7114   4.0433   4.2340   4.6692
     4.8795   5.2458   5.4983   5.6581   5.7631   5.9742   6.0993   6.2494
     6.4558   6.7044

     occupation numbers 
     1.0000   1.0000   1.0000   1.0000   1.0000   1.0000   1.0000   1.0000
     1.0000   1.0000   1.0000   1.0000   1.0000   1.0000   1.0000   1.0000
     1.0000   1.0000   1.0000   1.0000   1.0000   1.0000   1.0000   1.0000
     1.0000   1.0000   1.0000   1.0000   1.0000   1.0000   1.0000   1.0000
     1.0000   1.0000

          k =-0.3583 0.6206 0.0000 (  5790 PWs)   bands (ev):

   -47.3708 -47.3708 -35.0797 -35.0797 -23.6726 -23.6474 -23.6095 -23.5647
   -23.4972 -23.4777  -9.4266  -9.3315  -9.0415  -8.7608  -8.6749  -8.4858
     2.3534   2.5664   2.9787   3.3351   3.6385   3.7048   4.1834   4.4908
     4.6910   5.0617   5.3868   5.6209   5.9577   6.0220   6.1450   6.4103
     6.4949   6.7131

     occupation numbers 
     1.0000   1.0000   1.0000   1.0000   1.0000   1.0000   1.0000   1.0000
     1.0000   1.0000   1.0000   1.0000   1.0000   1.0000   1.0000   1.0000
     1.0000   1.0000   1.0000   1.0000   1.0000   1.0000   1.0000   1.0000
     1.0000   1.0000   1.0000   1.0000   1.0000   1.0000   1.0000   1.0000
     1.0000   1.0000

          k = 0.5374 0.3103-0.3952 (  5782 PWs)   bands (ev):

   -47.3730 -47.3686 -35.0802 -35.0792 -23.6822 -23.6756 -23.6477 -23.5246
   -23.4786 -23.4569  -9.6395  -9.3431  -9.2361  -8.5516  -8.4663  -8.4204
     2.3391   2.3717   2.5550   2.6601   4.0108   4.2329   4.5115   4.8900
     4.9674   5.0562   5.5100   5.5647   5.7984   5.8687   6.1258   6.1559
     6.3720   6.6510

     occupation numbers 
     1.0000   1.0000   1.0000   1.0000   1.0000   1.0000   1.0000   1.0000
     1.0000   1.0000   1.0000   1.0000   1.0000   1.0000   1.0000   1.0000
     1.0000   1.0000   1.0000   1.0000   1.0000   1.0000   1.0000   1.0000
     1.0000   1.0000   1.0000   1.0000   1.0000   1.0000   1.0000   1.0000
     1.0000   1.0000

          k = 0.0000 0.0000 0.1976 (  5773 PWs)   bands (ev):

   -47.3765 -47.3651 -35.0807 -35.0785 -23.6630 -23.6630 -23.5985 -23.5413
   -23.5413 -23.4517  -9.8897  -9.2545  -9.2545  -8.5900  -8.3507  -8.3507
     2.5331   2.5331   2.7773   2.9505   2.9505   3.6325   4.5344   4.5497
     4.5497   5.6786   5.6786   5.7203   5.9066   6.2427   6.2427   6.3683
     6.8497   6.8497

     occupation numbers 
     1.0000   1.0000   1.0000   1.0000   1.0000   1.0000   1.0000   1.0000
     1.0000   1.0000   1.0000   1.0000   1.0000   1.0000   1.0000   1.0000
     1.0000   1.0000   1.0000   1.0000   1.0000   1.0000   1.0000   1.0000
     1.0000   1.0000   1.0000   1.0000   1.0000   1.0000   1.0000   1.0000
     1.0000   1.0000

          k = 0.0000-0.2069 0.2635 (  5768 PWs)   bands (ev):

   -47.3752 -47.3664 -35.0805 -35.0788 -23.6688 -23.6359 -23.5769 -23.5698
   -23.5485 -23.4628  -9.7558  -9.2001  -9.1110  -8.7598  -8.5313  -8.3721
     2.4375   2.6941   2.9779   3.2302   3.3357   3.7881   4.0663   4.1681
     4.5899   5.1164   5.5675   5.8160   5.8855   6.2071   6.3730   6.4165
     6.7179   6.7569

     occupation numbers 
     1.0000   1.0000   1.0000   1.0000   1.0000   1.0000   1.0000   1.0000
     1.0000   1.0000   1.0000   1.0000   1.0000   1.0000   1.0000   1.0000
     1.0000   1.0000   1.0000   1.0000   1.0000   1.0000   1.0000   1.0000
     1.0000   1.0000   1.0000   1.0000   1.0000   1.0000   1.0000   1.0000
     1.0000   1.0000

          k = 0.0000 0.8274-0.0659 (  5797 PWs)   bands (ev):

   -47.3727 -47.3689 -35.0801 -35.0793 -23.6612 -23.6073 -23.6000 -23.5791
   -23.5379 -23.4826  -9.5070  -9.0786  -9.0276  -8.8693  -8.7715  -8.5087
     2.4519   2.8927   3.2649   3.4357   3.5279   3.8160   3.8433   4.2708
     4.4200   4.5442   5.2874   5.7491   6.0523   6.1254   6.3842   6.4933
     6.6015   6.6380

     occupation numbers 
     1.0000   1.0000   1.0000   1.0000   1.0000   1.0000   1.0000   1.0000
     1.0000   1.0000   1.0000   1.0000   1.0000   1.0000   1.0000   1.0000
     1.0000   1.0000   1.0000   1.0000   1.0000   1.0000   1.0000   1.0000
     1.0000   1.0000   1.0000   1.0000   1.0000   1.0000   1.0000   1.0000
     1.0000   1.0000

          k = 0.0000 0.6206 0.0000 (  5799 PWs)   bands (ev):

   -47.3719 -47.3697 -35.0799 -35.0795 -23.6431 -23.6362 -23.6150 -23.5644
   -23.5144 -23.4965  -9.4021  -9.2111  -9.0509  -8.7370  -8.7242  -8.6302
     2.6958   2.8313   2.8989   3.1375   3.5477   3.7846   4.0743   4.3572
     4.6697   4.8319   5.2345   5.4337   6.0521   6.2628   6.3299   6.4566
     6.5026   6.7326

     occupation numbers 
     1.0000   1.0000   1.0000   1.0000   1.0000   1.0000   1.0000   1.0000
     1.0000   1.0000   1.0000   1.0000   1.0000   1.0000   1.0000   1.0000
     1.0000   1.0000   1.0000   1.0000   1.0000   1.0000   1.0000   1.0000
     1.0000   1.0000   1.0000   1.0000   1.0000   1.0000   1.0000   1.0000
     1.0000   1.0000

          k = 0.0000 0.4137 0.0659 (  5768 PWs)   bands (ev):

   -47.3746 -47.3670 -35.0804 -35.0789 -23.6675 -23.6420 -23.5996 -23.5537
   -23.5384 -23.4645  -9.6915  -9.2366  -8.9814  -8.8844  -8.5022  -8.4185
     2.4980   2.6248   2.7570   3.2754   3.3126   3.5577   4.1002   4.4416
     4.6992   5.4341   5.6150   5.7987   5.9618   6.0572   6.2718   6.4897
     6.5746   6.7575

     occupation numbers 
     1.0000   1.0000   1.0000   1.0000   1.0000   1.0000   1.0000   1.0000
     1.0000   1.0000   1.0000   1.0000   1.0000   1.0000   1.0000   1.0000
     1.0000   1.0000   1.0000   1.0000   1.0000   1.0000   1.0000   1.0000
     1.0000   1.0000   1.0000   1.0000   1.0000   1.0000   1.0000   1.0000
     1.0000   1.0000

          k =-0.1791-0.1034 0.3293 (  5774 PWs)   bands (ev):

   -47.3746 -47.3670 -35.0804 -35.0789 -23.6671 -23.6399 -23.5980 -23.5548
   -23.5380 -23.4654  -9.7169  -9.2176  -8.9719  -8.9238  -8.4990  -8.4083
     2.5485   2.6685   3.0090   3.2802   3.3487   3.5931   4.1229   4.4746
     4.5585   5.1522   5.3590   5.7943   5.8776   6.0555   6.1493   6.4508
     6.6425   6.7752

     occupation numbers 
     1.0000   1.0000   1.0000   1.0000   1.0000   1.0000   1.0000   1.0000
     1.0000   1.0000   1.0000   1.0000   1.0000   1.0000   1.0000   1.0000
     1.0000   1.0000   1.0000   1.0000   1.0000   1.0000   1.0000   1.0000
     1.0000   1.0000   1.0000   1.0000   1.0000   1.0000   1.0000   1.0000
     1.0000   1.0000

          k =-0.1791 0.9308 0.0000 (  5799 PWs)   bands (ev):

   -47.3730 -47.3686 -35.0801 -35.0793 -23.6716 -23.6356 -23.6195 -23.5518
   -23.5171 -23.4706  -9.5872  -9.1738  -9.1270  -8.7534  -8.6580  -8.4366
     2.4163   2.7382   2.9509   3.3894   3.4490   3.8235   4.0284   4.4562
     4.7030   4.9934   5.4680   5.6080   5.8174   6.0111   6.1750   6.3931
     6.5243   6.6672

     occupation numbers 
     1.0000   1.0000   1.0000   1.0000   1.0000   1.0000   1.0000   1.0000
     1.0000   1.0000   1.0000   1.0000   1.0000   1.0000   1.0000   1.0000
     1.0000   1.0000   1.0000   1.0000   1.0000   1.0000   1.0000   1.0000
     1.0000   1.0000   1.0000   1.0000   1.0000   1.0000   1.0000   1.0000
     1.0000   1.0000

          k =-0.1791 0.7240 0.0659 (  5796 PWs)   bands (ev):

   -47.3708 -47.3708 -35.0797 -35.0797 -23.6634 -23.6624 -23.5859 -23.5843
   -23.4865 -23.4860  -9.3995  -9.3858  -8.9655  -8.8755  -8.5593  -8.5410
     2.4330   2.5363   2.9909   3.2287   3.6581   4.0237   4.0654   4.3582
     4.6906   5.0572   5.5161   5.6111   5.7479   5.9999   6.1803   6.3491
     6.5348   6.6475

     occupation numbers 
     1.0000   1.0000   1.0000   1.0000   1.0000   1.0000   1.0000   1.0000
     1.0000   1.0000   1.0000   1.0000   1.0000   1.0000   1.0000   1.0000
     1.0000   1.0000   1.0000   1.0000   1.0000   1.0000   1.0000   1.0000
     1.0000   1.0000   1.0000   1.0000   1.0000   1.0000   1.0000   1.0000
     1.0000   1.0000

          k =-0.1791 0.5171 0.1317 (  5782 PWs)   bands (ev):

   -47.3730 -47.3686 -35.0801 -35.0793 -23.6716 -23.6368 -23.6212 -23.5519
   -23.5163 -23.4701  -9.5702  -9.1682  -9.1228  -8.7553  -8.6701  -8.4322
     2.3819   2.7350   2.8223   3.1396   3.4796   3.8600   4.0228   4.5735
     4.7297   5.2374   5.3986   5.6991   5.9181   6.1200   6.2006   6.3177
     6.5231   6.7361

     occupation numbers 
     1.0000   1.0000   1.0000   1.0000   1.0000   1.0000   1.0000   1.0000
     1.0000   1.0000   1.0000   1.0000   1.0000   1.0000   1.0000   1.0000
     1.0000   1.0000   1.0000   1.0000   1.0000   1.0000   1.0000   1.0000
     1.0000   1.0000   1.0000   1.0000   1.0000   1.0000   1.0000   1.0000
     1.0000   1.0000

          k = 0.7166 0.4137-0.3293 (  5793 PWs)   bands (ev):

   -47.3727 -47.3689 -35.0801 -35.0793 -23.6715 -23.6641 -23.6373 -23.5351
   -23.4894 -23.4683  -9.5871  -9.3108  -9.1813  -8.6002  -8.5491  -8.4731
     2.4945   2.5434   2.6248   2.9467   3.8052   3.9678   4.3300   4.6071
     5.0496   5.1551   5.4834   5.5153   5.7871   5.8616   6.0722   6.2022
     6.3420   6.6995

     occupation numbers 
     1.0000   1.0000   1.0000   1.0000   1.0000   1.0000   1.0000   1.0000
     1.0000   1.0000   1.0000   1.0000   1.0000   1.0000   1.0000   1.0000
     1.0000   1.0000   1.0000   1.0000   1.0000   1.0000   1.0000   1.0000
     1.0000   1.0000   1.0000   1.0000   1.0000   1.0000   1.0000   1.0000
     1.0000   1.0000

          k = 0.7166 0.2069-0.2635 (  5802 PWs)   bands (ev):

   -47.3719 -47.3697 -35.0799 -35.0795 -23.6748 -23.6732 -23.6193 -23.5505
   -23.4783 -23.4711  -9.5173  -9.3834  -9.1090  -8.7010  -8.5189  -8.4644
     2.3511   2.3824   2.7585   3.2288   3.5093   4.2174   4.3840   4.5346
     5.0308   5.1515   5.3754   5.4973   5.7522   5.9021   6.1757   6.2399
     6.3862   6.6831

     occupation numbers 
     1.0000   1.0000   1.0000   1.0000   1.0000   1.0000   1.0000   1.0000
     1.0000   1.0000   1.0000   1.0000   1.0000   1.0000   1.0000   1.0000
     1.0000   1.0000   1.0000   1.0000   1.0000   1.0000   1.0000   1.0000
     1.0000   1.0000   1.0000   1.0000   1.0000   1.0000   1.0000   1.0000
     1.0000   1.0000

          k = 0.7166-0.0000-0.1976 (  5792 PWs)   bands (ev):

   -47.3708 -47.3708 -35.0797 -35.0797 -23.6630 -23.6630 -23.5855 -23.5855
   -23.4860 -23.4860  -9.3875  -9.3875  -8.9255  -8.9255  -8.5475  -8.5475
     2.4454   2.4454   3.1157   3.1157   3.7982   3.7982   4.2179   4.2179
     4.8598   4.8598   5.6212   5.6212   5.9207   5.9207   6.2740   6.2740
     6.6225   6.6225

     occupation numbers 
     1.0000   1.0000   1.0000   1.0000   1.0000   1.0000   1.0000   1.0000
     1.0000   1.0000   1.0000   1.0000   1.0000   1.0000   1.0000   1.0000
     1.0000   1.0000   1.0000   1.0000   1.0000   1.0000   1.0000   1.0000
     1.0000   1.0000   1.0000   1.0000   1.0000   1.0000   1.0000   1.0000
     1.0000   1.0000

          k = 0.5374 0.3103-0.1976 (  5796 PWs)   bands (ev):

   -47.3727 -47.3689 -35.0801 -35.0793 -23.6717 -23.6647 -23.6380 -23.5353
   -23.4892 -23.4680  -9.5752  -9.3045  -9.1866  -8.6039  -8.5418  -8.4781
     2.4270   2.5415   2.6262   2.8192   3.7747   4.0584   4.3533   4.6213
     4.9872   5.1060   5.5548   5.7133   5.8750   5.8878   6.1025   6.1616
     6.3496   6.7189

     occupation numbers 
     1.0000   1.0000   1.0000   1.0000   1.0000   1.0000   1.0000   1.0000
     1.0000   1.0000   1.0000   1.0000   1.0000   1.0000   1.0000   1.0000
     1.0000   1.0000   1.0000   1.0000   1.0000   1.0000   1.0000   1.0000
     1.0000   1.0000   1.0000   1.0000   1.0000   1.0000   1.0000   1.0000
     1.0000   1.0000

          k = 0.0000 0.0000 0.3952 (  5740 PWs)   bands (ev):

   -47.3741 -47.3675 -35.0803 -35.0790 -23.6379 -23.6379 -23.5687 -23.5676
   -23.5676 -23.4840  -9.6344  -9.0761  -9.0761  -8.8867  -8.5558  -8.5558
     2.8507   2.8507   3.1360   3.4638   3.4638   3.9697   4.0099   4.0099
     4.0829   5.0017   5.0017   5.2914   5.9518   6.3460   6.3460   6.3546
     6.7577   6.7577

     occupation numbers 
     1.0000   1.0000   1.0000   1.0000   1.0000   1.0000   1.0000   1.0000
     1.0000   1.0000   1.0000   1.0000   1.0000   1.0000   1.0000   1.0000
     1.0000   1.0000   1.0000   1.0000   1.0000   1.0000   1.0000   1.0000
     1.0000   1.0000   1.0000   1.0000   1.0000   1.0000   1.0000   1.0000
     1.0000   1.0000

          k = 0.0000 1.0343 0.0659 (  5781 PWs)   bands (ev):

   -47.3727 -47.3689 -35.0800 -35.0793 -23.6594 -23.6069 -23.5996 -23.5772
   -23.5389 -23.4837  -9.5333  -9.0981  -9.0051  -8.8762  -8.7781  -8.4943
     2.6306   3.0421   3.2553   3.4899   3.4908   3.8002   3.9713   4.2721
     4.4102   4.4307   5.0709   5.5235   5.9354   5.9828   6.3773   6.5236
     6.5803   6.6319

     occupation numbers 
     1.0000   1.0000   1.0000   1.0000   1.0000   1.0000   1.0000   1.0000
     1.0000   1.0000   1.0000   1.0000   1.0000   1.0000   1.0000   1.0000
     1.0000   1.0000   1.0000   1.0000   1.0000   1.0000   1.0000   1.0000
     1.0000   1.0000   1.0000   1.0000   1.0000   1.0000   1.0000   1.0000
     1.0000   1.0000

          k = 0.0000 0.8274 0.1317 (  5794 PWs)   bands (ev):

   -47.3708 -47.3708 -35.0797 -35.0797 -23.6726 -23.6450 -23.6108 -23.5621
   -23.4988 -23.4780  -9.4383  -9.3575  -9.0247  -8.7622  -8.6642  -8.4911
     2.3931   2.8341   2.8730   3.3403   3.6477   3.6492   4.3500   4.4386
     4.8059   4.9468   5.4103   5.4203   5.7075   6.0015   6.1968   6.2782
     6.4226   6.7027

     occupation numbers 
     1.0000   1.0000   1.0000   1.0000   1.0000   1.0000   1.0000   1.0000
     1.0000   1.0000   1.0000   1.0000   1.0000   1.0000   1.0000   1.0000
     1.0000   1.0000   1.0000   1.0000   1.0000   1.0000   1.0000   1.0000
     1.0000   1.0000   1.0000   1.0000   1.0000   1.0000   1.0000   1.0000
     1.0000   1.0000

          k = 0.8957 0.5171-0.2635 (  5780 PWs)   bands (ev):

   -47.3719 -47.3697 -35.0799 -35.0795 -23.6425 -23.6339 -23.6122 -23.5638
   -23.5160 -23.4978  -9.4426  -9.2425  -9.0297  -8.7350  -8.7202  -8.6189
     2.8964   2.9653   2.9980   3.5338   3.6031   3.7517   3.9034   4.2140
     4.5572   4.6960   5.0125   5.1890   6.0021   6.0847   6.2759   6.4340
     6.4760   6.6919

     occupation numbers 
     1.0000   1.0000   1.0000   1.0000   1.0000   1.0000   1.0000   1.0000
     1.0000   1.0000   1.0000   1.0000   1.0000   1.0000   1.0000   1.0000
     1.0000   1.0000   1.0000   1.0000   1.0000   1.0000   1.0000   1.0000
     1.0000   1.0000   1.0000   1.0000   1.0000   1.0000   1.0000   1.0000
     1.0000   1.0000

          k = 0.8957 0.3103-0.1976 (  5796 PWs)   bands (ev):

   -47.3708 -47.3708 -35.0797 -35.0797 -23.6622 -23.6622 -23.5844 -23.5844
   -23.4868 -23.4868  -9.4091  -9.4091  -8.9151  -8.9151  -8.5477  -8.5477
     2.5714   2.5714   3.1175   3.1175   3.8883   3.8883   4.1551   4.1551
     4.9054   4.9054   5.4184   5.4184   5.8128   5.8128   6.2150   6.2150
     6.5795   6.5795

     occupation numbers 
     1.0000   1.0000   1.0000   1.0000   1.0000   1.0000   1.0000   1.0000
     1.0000   1.0000   1.0000   1.0000   1.0000   1.0000   1.0000   1.0000
     1.0000   1.0000   1.0000   1.0000   1.0000   1.0000   1.0000   1.0000
     1.0000   1.0000   1.0000   1.0000   1.0000   1.0000   1.0000   1.0000
     1.0000   1.0000

          k =-0.0000 0.0000-0.5928 (  5752 PWs)   bands (ev):

   -47.3708 -47.3708 -35.0797 -35.0797 -23.6030 -23.6030 -23.6030 -23.6030
   -23.5270 -23.5270  -9.2708  -9.2708  -8.8226  -8.8226  -8.8226  -8.8226
     3.3668   3.3668   3.3668   3.3668   3.5909   3.5909   4.2071   4.2071
     4.2071   4.2071   4.5652   4.5652   6.2016   6.2016   6.5544   6.5544
     6.5544   6.5544

     occupation numbers 
     1.0000   1.0000   1.0000   1.0000   1.0000   1.0000   1.0000   1.0000
     1.0000   1.0000   1.0000   1.0000   1.0000   1.0000   1.0000   1.0000
     1.0000   1.0000   1.0000   1.0000   1.0000   1.0000   1.0000   1.0000
     1.0000   1.0000   1.0000   1.0000   1.0000   1.0000   1.0000   1.0000
     1.0000   1.0000

     highest occupied level (ev):     6.8497

!    total energy              =    -936.83325336 Ry
     estimated scf accuracy    <          4.2E-14 Ry

     The total energy is the sum of the following terms:
     one-electron contribution =    -145.27217773 Ry
     hartree contribution      =     106.23454019 Ry
     xc contribution           =    -108.06172451 Ry
     ewald contribution        =    -326.27977725 Ry
     one-center paw contrib.   =    -463.45411406 Ry
      -> PAW hartree energy AE =     291.67778298 Ry
      -> PAW hartree energy PS =    -290.16591978 Ry
      -> PAW xc energy AE      =    -560.43265482 Ry
      -> PAW xc energy PS      =      95.46667756 Ry
      -> total E_H with PAW    =     107.74640339 Ry
      -> total E_XC with PAW   =    -573.02770177 Ry

     convergence has been achieved in  23 iterations

     Forces acting on atoms (cartesian axes, Ry/au):

     atom    1 type  1   force =     0.00000000    0.00000000    0.00075026
     atom    2 type  1   force =     0.00000000    0.00000000    0.00075026
     atom    3 type  2   force =     0.01533659   -0.00279156   -0.00485033
     atom    4 type  2   force =    -0.00525074    0.01467766   -0.00485033
     atom    5 type  2   force =    -0.01008586   -0.01188610   -0.00485033
     atom    6 type  2   force =     0.00525074    0.01467766   -0.00485033
     atom    7 type  2   force =    -0.01533659   -0.00279156   -0.00485033
     atom    8 type  2   force =     0.01008586   -0.01188610   -0.00485033
     atom    9 type  3   force =     0.00000000    0.00000000    0.01380073
     atom   10 type  3   force =     0.00000000    0.00000000    0.01380073
     The non-local contrib.  to forces
     atom    1 type  1   force =     0.00000000   -0.00000000    0.01186901
     atom    2 type  1   force =     0.00000000    0.00000000    0.01186901
     atom    3 type  2   force =     0.33886934   -0.17703948   -0.04805064
     atom    4 type  2   force =    -0.01611399    0.38198920   -0.04805064
     atom    5 type  2   force =    -0.32275536   -0.20494972   -0.04805064
     atom    6 type  2   force =     0.01611399    0.38198920   -0.04805064
     atom    7 type  2   force =    -0.33886934   -0.17703948   -0.04805064
     atom    8 type  2   force =     0.32275536   -0.20494972   -0.04805064
     atom    9 type  3   force =    -0.00000000    0.00000000   -0.00682493
     atom   10 type  3   force =    -0.00000000    0.00000000   -0.00682493
     The ionic contribution  to forces
     atom    1 type  1   force =    -0.00000000   -0.00000000   -1.02844043
     atom    2 type  1   force =     0.00000000   -0.00000000   -1.02844043
     atom    3 type  2   force =    -3.60451225    2.63090761    0.41073945
     atom    4 type  2   force =    -0.47617670   -4.43705298    0.41073945
     atom    5 type  2   force =     4.08068895    1.80614537    0.41073945
     atom    6 type  2   force =     0.47617670   -4.43705298    0.41073945
     atom    7 type  2   force =     3.60451225    2.63090761    0.41073945
     atom    8 type  2   force =    -4.08068895    1.80614537    0.41073945
     atom    9 type  3   force =    -0.00000000   -0.00000000   -0.20377791
     atom   10 type  3   force =     0.00000000    0.00000000   -0.20377791
     The local contribution  to forces
     atom    1 type  1   force =     0.00000000   -0.00000000    1.01732173
     atom    2 type  1   force =    -0.00000000    0.00000000    1.01732173
     atom    3 type  2   force =     3.28256108   -2.45822384   -0.36748043
     atom    4 type  2   force =     0.48760376    4.07189321   -0.36748043
     atom    5 type  2   force =    -3.77016484   -1.61366936   -0.36748043
     atom    6 type  2   force =    -0.48760376    4.07189321   -0.36748043
     atom    7 type  2   force =    -3.28256108   -2.45822385   -0.36748043
     atom    8 type  2   force =     3.77016484   -1.61366936   -0.36748043
     atom    9 type  3   force =     0.00000000    0.00000000    0.23002901
     atom   10 type  3   force =    -0.00000000    0.00000000    0.23002901
     The core correction contribution to forces
     atom    1 type  1   force =     0.00000000    0.00000000    0.00000000
     atom    2 type  1   force =     0.00000000    0.00000000    0.00000000
     atom    3 type  2   force =    -0.00158150    0.00156412   -0.00005866
     atom    4 type  2   force =    -0.00056382   -0.00215168   -0.00005866
     atom    5 type  2   force =     0.00214532    0.00058756   -0.00005866
     atom    6 type  2   force =     0.00056382   -0.00215168   -0.00005866
     atom    7 type  2   force =     0.00158150    0.00156412   -0.00005866
     atom    8 type  2   force =    -0.00214532    0.00058756   -0.00005866
     atom    9 type  3   force =     0.00000000    0.00000000   -0.00562537
     atom   10 type  3   force =     0.00000000   -0.00000000   -0.00562537
     The Hubbard contrib.    to forces
     atom    1 type  1   force =     0.00000000    0.00000000    0.00000000
     atom    2 type  1   force =     0.00000000    0.00000000    0.00000000
     atom    3 type  2   force =     0.00000000    0.00000000    0.00000000
     atom    4 type  2   force =     0.00000000    0.00000000    0.00000000
     atom    5 type  2   force =     0.00000000    0.00000000    0.00000000
     atom    6 type  2   force =     0.00000000    0.00000000    0.00000000
     atom    7 type  2   force =     0.00000000    0.00000000    0.00000000
     atom    8 type  2   force =     0.00000000    0.00000000    0.00000000
     atom    9 type  3   force =     0.00000000    0.00000000    0.00000000
     atom   10 type  3   force =     0.00000000    0.00000000    0.00000000
     The SCF correction term to forces
     atom    1 type  1   force =    -0.00000000   -0.00000000    0.00000000
     atom    2 type  1   force =    -0.00000000   -0.00000000    0.00000000
     atom    3 type  2   force =    -0.00000009    0.00000003    0.00000001
     atom    4 type  2   force =     0.00000001   -0.00000009    0.00000001
     atom    5 type  2   force =     0.00000007    0.00000006    0.00000001
     atom    6 type  2   force =    -0.00000001   -0.00000009    0.00000001
     atom    7 type  2   force =     0.00000009    0.00000003    0.00000001
     atom    8 type  2   force =    -0.00000007    0.00000006    0.00000001
     atom    9 type  3   force =    -0.00000000    0.00000000   -0.00000002
     atom   10 type  3   force =     0.00000000   -0.00000000   -0.00000002

     Total force =     0.044511     Total SCF correction =     0.000000


     Computing stress (Cartesian axis) and pressure

          total   stress  (Ry/bohr**3)                   (kbar)     P=      -73.10
  -0.00047688  -0.00000000  -0.00000000          -70.15       -0.00       -0.00
  -0.00000000  -0.00047688  -0.00000000           -0.00      -70.15       -0.00
  -0.00000000  -0.00000000  -0.00053705           -0.00       -0.00      -79.00

     kinetic stress (kbar)  25641.91     -0.00      0.00
                                0.00  25641.91      0.00
                                0.00      0.00  25590.71

     local   stress (kbar) -12748.89     -0.00     -0.00
                               -0.00 -12748.89      0.00
                               -0.00      0.00 -11192.36

     nonloc. stress (kbar)   6700.48      0.00      0.00
                                0.00   6700.48      0.00
                                0.00      0.00   6738.32

     hartree stress (kbar)   7183.42     -0.00      0.00
                               -0.00   7183.42     -0.00
                                0.00     -0.00   6831.11

     exc-cor stress (kbar)   1051.98      0.00      0.00
                                0.00   1051.98     -0.00
                                0.00     -0.00   1049.28

     corecor stress (kbar)  -6596.00     -0.00     -0.00
                               -0.00  -6596.00      0.00
                               -0.00      0.00  -6596.57

     ewald   stress (kbar) -21303.06      0.00      0.00
                                0.00 -21303.06     -0.00
                                0.00     -0.00 -22499.49

     hubbard stress (kbar)      0.00      0.00      0.00
                                0.00      0.00      0.00
                                0.00      0.00      0.00

     DFT-D   stress (kbar)      0.00      0.00      0.00
                                0.00      0.00      0.00
                                0.00      0.00      0.00

     XDM     stress (kbar)      0.00      0.00      0.00
                                0.00      0.00      0.00
                                0.00      0.00      0.00

     dft-nl  stress (kbar)      0.00      0.00      0.00
                                0.00      0.00      0.00
                                0.00      0.00      0.00

     TS-vdW  stress (kbar)      0.00      0.00      0.00
                                0.00      0.00      0.00
                                0.00      0.00      0.00

     MDB     stress (kbar)      0.00      0.00      0.00
                                0.00      0.00      0.00
                                0.00      0.00      0.00

     3D-RISM stress (kbar)      0.00      0.00      0.00
                                0.00      0.00      0.00
                                0.00      0.00      0.00

     Message from routine punch:
     Nothing written, as per user request (disk_io='none')
 
     init_run     :      0.56s CPU      0.74s WALL (       1 calls)
     electrons    :     18.02s CPU     18.47s WALL (       1 calls)
     forces       :      0.08s CPU      0.08s WALL (       1 calls)
     stress       :      0.17s CPU      0.17s WALL (       1 calls)

     Called by init_run:
     wfcinit      :      0.18s CPU      0.26s WALL (       1 calls)
     wfcinit:atom :      0.02s CPU      0.03s WALL (      32 calls)
     wfcinit:wfcr :      0.12s CPU      0.18s WALL (      32 calls)
     potinit      :      0.10s CPU      0.11s WALL (       1 calls)
     hinit0       :      0.21s CPU      0.23s WALL (       1 calls)

     Called by electrons:
     c_bands      :     14.21s CPU     14.49s WALL (      23 calls)
     sum_band     :      1.60s CPU      1.63s WALL (      23 calls)
     v_of_rho     :      0.09s CPU      0.13s WALL (      24 calls)
     v_h          :      0.04s CPU      0.06s WALL (      24 calls)
     v_xc         :      0.06s CPU      0.07s WALL (      26 calls)
     newd         :      0.22s CPU      0.25s WALL (      24 calls)
     PAW_pot      :      1.73s CPU      1.79s WALL (      24 calls)
     mix_rho      :      0.16s CPU      0.17s WALL (      23 calls)

     Called by c_bands:
     init_us_2    :      0.50s CPU      0.51s WALL (    1568 calls)
     cegterg      :     13.06s CPU     13.31s WALL (     736 calls)

     Called by sum_band:
     sum_band:wei :      0.00s CPU      0.00s WALL (      23 calls)
     sum_band:loo :      1.23s CPU      1.25s WALL (      23 calls)
     sum_band:buf :      0.23s CPU      0.24s WALL (     736 calls)
     sum_band:ini :      0.23s CPU      0.24s WALL (     736 calls)
     sum_band:cal :      0.01s CPU      0.01s WALL (     736 calls)
     sum_band:bec :      0.28s CPU      0.28s WALL (     736 calls)
     addusdens    :      0.24s CPU      0.24s WALL (      23 calls)
                                        0.24s GPU  (      23 calls)
     addusd:skk   :      0.01s CPU      0.01s WALL (      69 calls)
                                        0.01s GPU  (      69 calls)

     Called by *egterg:
     cdiaghg      :      5.73s CPU      5.87s WALL (    4917 calls)
                                        5.82s GPU  (    4917 calls)
     cegterg:over :      0.37s CPU      0.38s WALL (    4181 calls)
     cegterg:upda :      1.31s CPU      1.32s WALL (    4181 calls)
     cegterg:last :      0.17s CPU      0.18s WALL (    2723 calls)
     h_psi        :      3.58s CPU      3.79s WALL (    4949 calls)
     s_psi        :      1.27s CPU      1.29s WALL (    4949 calls)
     g_psi        :      0.08s CPU      0.08s WALL (    4181 calls)

     Called by h_psi:
     h_psi:calbec :      0.09s CPU      0.12s WALL (    4949 calls)
     vloc_psi     :      2.29s CPU      2.51s WALL (    4949 calls)
                                        2.46s GPU  (    4949 calls)
     add_vuspsi   :      1.06s CPU      1.08s WALL (    4949 calls)

     General routines
     calbec       :      0.10s CPU      0.13s WALL (    6229 calls)
     fft          :      0.03s CPU      0.06s WALL (     335 calls)
                                        0.02s GPU  (     311 calls)
     ffts         :      0.01s CPU      0.01s WALL (      47 calls)
                                        0.00s GPU  (      23 calls)
     fftw         :      0.16s CPU      1.50s WALL (   21248 calls)
                                        1.29s GPU  (   21248 calls)
     interpolate  :      0.06s CPU      0.10s WALL (      24 calls)
 
     Parallel routines

     PAW routines
     PAW_pot      :      1.73s CPU      1.79s WALL (      24 calls)
     PAW_symme    :      0.00s CPU      0.00s WALL (      47 calls)
 
     PWSCF        :     19.21s CPU     19.87s WALL

 
   This run was terminated on:  17: 6:24  29Nov2025            

=------------------------------------------------------------------------------=
   JOB DONE.
=------------------------------------------------------------------------------=
