
     Program PWSCF v.7.5 starts on 29Nov2025 at 17: 5:36 

     This program is part of the open-source Quantum ESPRESSO suite
     for quantum simulation of materials; please cite
         "P. Giannozzi et al., J. Phys.:Condens. Matter 21 395502 (2009);
         "P. Giannozzi et al., J. Phys.:Condens. Matter 29 465901 (2017);
         "P. Giannozzi et al., J. Chem. Phys. 152 154105 (2020);
          URL http://www.quantum-espresso.org", 
     in publications or presentations arising from this work. More details at
     http://www.quantum-espresso.org/quote

     Parallel version (MPI & OpenMP), running on       1 processor cores
     Number of MPI processes:                 1
     Threads/MPI process:                     1

     MPI processes distributed on     1 nodes
     1368820 MiB available memory on the printing compute node when the environment starts
 
     Reading input from espresso.pwi
Warning: card &CELL ignored
Warning: card &FCP ignored
Warning: card &RISM ignored

     Current dimensions of program PWSCF are:
     Max number of different atomic species (ntypx) = 10
     Max number of k-points (npk) =  40000
     Max angular momentum in pseudopotentials (lmaxx) =  4
     file O.pbesol-n-kjpaw_psl.0.1.UPF: wavefunction(s)  2P renormalized
     file Nb.pbesol-spn-kjpaw_psl.0.3.0.UPF: wavefunction(s)  4S 4P renormalized
     Message from routine setup:
     using ibrav=0 with symmetry is DISCOURAGED, use correct ibrav instead
 
     Subspace diagonalization in iterative solution of the eigenvalue problem:
     a serial algorithm will be used

 
     G-vector sticks info
     --------------------
     sticks:   dense  smooth     PW     G-vecs:    dense   smooth      PW
     Sum        2715    1627    475                90145    41899    6713
 
     Using Slab Decomposition
 


     bravais-lattice index     =            0
     lattice parameter (alat)  =      10.1414  a.u.
     unit-cell volume          =     666.8600 (a.u.)^3
     number of atoms/cell      =           10
     number of atomic types    =            3
     number of electrons       =        68.00
     number of Kohn-Sham states=           34
     kinetic-energy cutoff     =      60.0000  Ry
     charge density cutoff     =     400.0000  Ry
     scf convergence threshold =      1.0E-12
     mixing beta               =       0.7000
     number of iterations used =            8  plain     mixing
     Exchange-correlation= SLA  PW   PSX  PSC
                           (   1   4  10   8   0   0   0)

     GPU acceleration is ACTIVE.  1 visible GPUs per MPI rank


     GPU used by master process:

        Device Number: 0
        Device name: NVIDIA B200
        Compute capability : 100
        Ratio of single to double precision performance  : 16
        Memory Clock Rate (KHz): 3996000
        Memory Bus Width (bits): 7680
        Peak Memory Bandwidth (GB/s): ******

     celldm(1)=  10.141379  celldm(2)=   0.000000  celldm(3)=   0.000000
     celldm(4)=   0.000000  celldm(5)=   0.000000  celldm(6)=   0.000000

     crystal axes: (cart. coord. in units of alat)
               a(1) = (   0.468445   0.270457   0.841078 )  
               a(2) = (  -0.468445   0.270457   0.841078 )  
               a(3) = (   0.000000  -0.540913   0.841078 )  

     reciprocal axes: (cart. coord. in units 2 pi/alat)
               b(1) = (  1.067362  0.616242  0.396317 )  
               b(2) = ( -1.067362  0.616242  0.396317 )  
               b(3) = (  0.000000 -1.232483  0.396317 )  


     PseudoPot. # 1 for Li read from file:
     /home/qhossain/SSSP_1.3.0_PBEsol_efficiency/li_pbesol_v1.4.uspp.F.UPF
     MD5 check sum: aa28d9aeea6a965f2dc95ee9517b3536
     Pseudo is Ultrasoft, Zval =  3.0
     Generated by new atomic code, or converted to UPF format
     Using radial grid of  751 points,  5 beta functions with: 
                l(1) =   0
                l(2) =   0
                l(3) =   0
                l(4) =   1
                l(5) =   1
     Q(r) pseudized with 10 coefficients,  rinner =    1.150   1.150   1.150


     PseudoPot. # 2 for O  read from file:
     /home/qhossain/SSSP_1.3.0_PBEsol_efficiency/O.pbesol-n-kjpaw_psl.0.1.UPF
     MD5 check sum: 81d73d1479e654e5638b0319f0d6c2c7
     Pseudo is Projector augmented-wave + core cor, Zval =  6.0
     Generated using "atomic" code by A. Dal Corso  v.6.0 svn rev. 13079
     Shape of augmentation charge: BESSEL
     Using radial grid of 1095 points,  4 beta functions with: 
                l(1) =   0
                l(2) =   0
                l(3) =   1
                l(4) =   1
     Q(r) pseudized with 0 coefficients 


     PseudoPot. # 3 for Nb read from file:
     /home/qhossain/SSSP_1.3.0_PBEsol_efficiency/Nb.pbesol-spn-kjpaw_psl.0.3.0.UPF
     MD5 check sum: 3501bca1474143575298708b2d32ca28
     Pseudo is Projector augmented-wave + core cor, Zval = 13.0
     Generated using "atomic" code by A. Dal Corso  v.6.0 svn rev. 13079
     Shape of augmentation charge: PSQ
     Using radial grid of 1227 points,  6 beta functions with: 
                l(1) =   0
                l(2) =   0
                l(3) =   1
                l(4) =   1
                l(5) =   2
                l(6) =   2
     Q(r) pseudized with 0 coefficients 


     atomic species   valence    mass     pseudopotential
     Li                3.00     6.94000     Li( 1.00)
     O                 6.00    15.99900     O ( 1.00)
     Nb               13.00    92.90637     Nb( 1.00)

      6 Sym. Ops. (no inversion) found ( 3 have fractional translation)


                                    s                        frac. trans.

      isym =  1     identity                                     

 cryst.   s( 1) = (     1          0          0      )
                  (     0          1          0      )
                  (     0          0          1      )

 cart.    s( 1) = (  1.0000000 -0.0000000  0.0000000 )
                  ( -0.0000000  1.0000000  0.0000000 )
                  (  0.0000000  0.0000000  1.0000000 )


      isym =  2     120 deg rotation - cryst. axis [0,0,1]       

 cryst.   s( 2) = (     0          1          0      )
                  (     0          0          1      )
                  (     1          0          0      )

 cart.    s( 2) = ( -0.5000000 -0.8660254 -0.0000000 )
                  (  0.8660254 -0.5000000 -0.0000000 )
                  ( -0.0000000 -0.0000000  1.0000000 )


      isym =  3     120 deg rotation - cryst. axis [0,0,-1]      

 cryst.   s( 3) = (     0          0          1      )
                  (     1          0          0      )
                  (     0          1          0      )

 cart.    s( 3) = ( -0.5000000  0.8660254  0.0000000 )
                  ( -0.8660254 -0.5000000 -0.0000000 )
                  (  0.0000000 -0.0000000  1.0000000 )


      isym =  4     inv. 180 deg rotation - cart. axis [1,0,0]   

 cryst.   s( 4) = (     0          1          0      )    f =(  0.5000000 )
                  (     1          0          0      )       (  0.5000000 )
                  (     0          0          1      )       (  0.5000000 )

 cart.    s( 4) = ( -1.0000000 -0.0000000  0.0000000 )    f =( -0.0000000 )
                  ( -0.0000000  1.0000000  0.0000000 )       ( -0.0000000 )
                  (  0.0000000  0.0000000  1.0000000 )       (  1.2616176 )


      isym =  5     inv. 180 deg rotation - cryst. axis [0,1,0]  

 cryst.   s( 5) = (     1          0          0      )    f =(  0.5000000 )
                  (     0          0          1      )       (  0.5000000 )
                  (     0          1          0      )       (  0.5000000 )

 cart.    s( 5) = (  0.5000000  0.8660254  0.0000000 )    f =(  0.0000000 )
                  (  0.8660254 -0.5000000 -0.0000000 )       ( -0.0000000 )
                  ( -0.0000000 -0.0000000  1.0000000 )       (  1.2616176 )


      isym =  6     inv. 180 deg rotation - cryst. axis [1,1,0]  

 cryst.   s( 6) = (     0          0          1      )    f =(  0.5000000 )
                  (     0          1          0      )       (  0.5000000 )
                  (     1          0          0      )       (  0.5000000 )

 cart.    s( 6) = (  0.5000000 -0.8660254 -0.0000000 )    f =( -0.0000000 )
                  ( -0.8660254 -0.5000000 -0.0000000 )       ( -0.0000000 )
                  (  0.0000000 -0.0000000  1.0000000 )       (  1.2616176 )


   Cartesian axes

     site n.     atom                  positions (alat units)
         1        Li     tau(   1) = (  -0.0000000  -0.0000000   1.9767754  )
         2        Li     tau(   2) = (   0.0000000  -0.0000000   0.7151579  )
         3        O      tau(   3) = (  -0.3002641  -0.0382953   1.4284135  )
         4        O      tau(   4) = (   0.1832967  -0.2408887   1.4284135  )
         5        O      tau(   5) = (   0.1169674   0.2791840   1.4284135  )
         6        O      tau(   6) = (   0.2851479   0.0295679   1.0078744  )
         7        O      tau(   7) = (  -0.1681805   0.2321613   1.0078744  )
         8        O      tau(   8) = (  -0.1169674  -0.2617293   1.0078744  )
         9        Nb     tau(   9) = (  -0.0000000  -0.0000000   1.2643329  )
        10        Nb     tau(  10) = (  -0.0000000  -0.0000000   0.0027153  )

   Crystallographic axes

     site n.     atom                  positions (cryst. coord.)
         1        Li     tau(   1) = (  0.7834289  0.7834289  0.7834289  )
         2        Li     tau(   2) = (  0.2834289  0.2834289  0.2834289  )
         3        O      tau(   3) = (  0.2220144  0.8629954  0.6133023  )
         4        O      tau(   4) = (  0.6133023  0.2220144  0.8629954  )
         5        O      tau(   5) = (  0.8629954  0.6133023  0.2220144  )
         6        O      tau(   6) = (  0.7220144  0.1133023  0.3629954  )
         7        O      tau(   7) = (  0.3629954  0.7220144  0.1133023  )
         8        O      tau(   8) = (  0.1133023  0.3629954  0.7220144  )
         9        Nb     tau(   9) = (  0.5010761  0.5010761  0.5010761  )
        10        Nb     tau(  10) = (  0.0010761  0.0010761  0.0010761  )

     number of k points=    32
                       cart. coord. in units 2pi/alat
        k(    1) = (   0.0000000   0.0000000   0.0000000), wk =   0.0092593
        k(    2) = (   0.0000000  -0.2054139   0.0660528), wk =   0.0555556
        k(    3) = (   0.0000000  -0.4108278   0.1321055), wk =   0.0555556
        k(    4) = (  -0.0000000   0.6162417  -0.1981583), wk =   0.0277778
        k(    5) = (  -0.1778937  -0.1027070   0.1321055), wk =   0.0555556
        k(    6) = (  -0.1778937  -0.3081209   0.1981583), wk =   0.1111111
        k(    7) = (  -0.1778937   0.7189487  -0.1321055), wk =   0.1111111
        k(    8) = (  -0.1778937   0.5135348  -0.0660528), wk =   0.1111111
        k(    9) = (  -0.1778937   0.3081209   0.0000000), wk =   0.0555556
        k(   10) = (  -0.3557873  -0.2054139   0.2642111), wk =   0.0555556
        k(   11) = (  -0.3557873   0.8216556  -0.0660528), wk =   0.1111111
        k(   12) = (  -0.3557873   0.6162417   0.0000000), wk =   0.0555556
        k(   13) = (   0.5336810   0.3081209  -0.3963166), wk =   0.0277778
        k(   14) = (  -0.0000000   0.0000000   0.1981583), wk =   0.0185185
        k(   15) = (  -0.0000000  -0.2054139   0.2642111), wk =   0.0555556
        k(   16) = (  -0.0000000   0.8216556  -0.0660528), wk =   0.0555556
        k(   17) = (  -0.0000000   0.6162417   0.0000000), wk =   0.0555556
        k(   18) = (  -0.0000000   0.4108278   0.0660528), wk =   0.0555556
        k(   19) = (  -0.1778937  -0.1027070   0.3302638), wk =   0.0555556
        k(   20) = (  -0.1778937   0.9243626   0.0000000), wk =   0.1111111
        k(   21) = (  -0.1778937   0.7189487   0.0660528), wk =   0.1111111
        k(   22) = (  -0.1778937   0.5135348   0.1321055), wk =   0.1111111
        k(   23) = (   0.7115747   0.4108278  -0.3302638), wk =   0.0555556
        k(   24) = (   0.7115747   0.2054139  -0.2642111), wk =   0.1111111
        k(   25) = (   0.7115747  -0.0000000  -0.1981583), wk =   0.0555556
        k(   26) = (   0.5336810   0.3081209  -0.1981583), wk =   0.0555556
        k(   27) = (  -0.0000000   0.0000000   0.3963166), wk =   0.0185185
        k(   28) = (  -0.0000000   1.0270696   0.0660528), wk =   0.0555556
        k(   29) = (  -0.0000000   0.8216556   0.1321055), wk =   0.0555556
        k(   30) = (   0.8894683   0.5135348  -0.2642111), wk =   0.0555556
        k(   31) = (   0.8894683   0.3081209  -0.1981583), wk =   0.0555556
        k(   32) = (  -0.0000000   0.0000000  -0.5944749), wk =   0.0092593

                       cryst. coord.
        k(    1) = (   0.0000000   0.0000000   0.0000000), wk =   0.0092593
        k(    2) = (  -0.0000000  -0.0000000   0.1666667), wk =   0.0555556
        k(    3) = (  -0.0000000  -0.0000000   0.3333333), wk =   0.0555556
        k(    4) = (   0.0000000   0.0000000  -0.5000000), wk =   0.0277778
        k(    5) = (  -0.0000000   0.1666667   0.1666667), wk =   0.0555556
        k(    6) = (  -0.0000000   0.1666667   0.3333333), wk =   0.1111111
        k(    7) = (  -0.0000000   0.1666667  -0.5000000), wk =   0.1111111
        k(    8) = (  -0.0000000   0.1666667  -0.3333333), wk =   0.1111111
        k(    9) = (  -0.0000000   0.1666667  -0.1666667), wk =   0.0555556
        k(   10) = (  -0.0000000   0.3333333   0.3333333), wk =   0.0555556
        k(   11) = (  -0.0000000   0.3333333  -0.5000000), wk =   0.1111111
        k(   12) = (  -0.0000000   0.3333333  -0.3333333), wk =   0.0555556
        k(   13) = (  -0.0000000  -0.5000000  -0.5000000), wk =   0.0277778
        k(   14) = (   0.1666667   0.1666667   0.1666667), wk =   0.0185185
        k(   15) = (   0.1666667   0.1666667   0.3333333), wk =   0.0555556
        k(   16) = (   0.1666667   0.1666667  -0.5000000), wk =   0.0555556
        k(   17) = (   0.1666667   0.1666667  -0.3333333), wk =   0.0555556
        k(   18) = (   0.1666667   0.1666667  -0.1666667), wk =   0.0555556
        k(   19) = (   0.1666667   0.3333333   0.3333333), wk =   0.0555556
        k(   20) = (   0.1666667   0.3333333  -0.5000000), wk =   0.1111111
        k(   21) = (   0.1666667   0.3333333  -0.3333333), wk =   0.1111111
        k(   22) = (   0.1666667   0.3333333  -0.1666667), wk =   0.1111111
        k(   23) = (   0.1666667  -0.5000000  -0.5000000), wk =   0.0555556
        k(   24) = (   0.1666667  -0.5000000  -0.3333333), wk =   0.1111111
        k(   25) = (   0.1666667  -0.5000000  -0.1666667), wk =   0.0555556
        k(   26) = (   0.1666667  -0.3333333  -0.3333333), wk =   0.0555556
        k(   27) = (   0.3333333   0.3333333   0.3333333), wk =   0.0185185
        k(   28) = (   0.3333333   0.3333333  -0.5000000), wk =   0.0555556
        k(   29) = (   0.3333333   0.3333333  -0.3333333), wk =   0.0555556
        k(   30) = (   0.3333333  -0.5000000  -0.5000000), wk =   0.0555556
        k(   31) = (   0.3333333  -0.5000000  -0.3333333), wk =   0.0555556
        k(   32) = (  -0.5000000  -0.5000000  -0.5000000), wk =   0.0092593

     Dense  grid:    90145 G-vectors     FFT dimensions: (  72,  72,  72)

     Smooth grid:    41899 G-vectors     FFT dimensions: (  54,  54,  54)

     Dynamical RAM for                 wfc:       2.72 MB

     Dynamical RAM for     wfc (w. buffer):      89.61 MB

     Dynamical RAM for           str. fact:       4.13 MB

     Dynamical RAM for           local pot:       0.00 MB

     Dynamical RAM for          nlocal pot:       8.15 MB

     Dynamical RAM for                qrad:       4.82 MB

     Dynamical RAM for          rho,v,vnew:      12.67 MB

     Dynamical RAM for               rhoin:       4.22 MB

     Dynamical RAM for            rho*nmix:      22.01 MB

     Dynamical RAM for           G-vectors:       5.48 MB

     Dynamical RAM for          h,s,v(r/c):       0.21 MB

     Dynamical RAM for          <psi|beta>:       0.05 MB

     Dynamical RAM for                 psi:       5.43 MB

     Dynamical RAM for                hpsi:       5.43 MB

     Dynamical RAM for                spsi:       5.43 MB

     Dynamical RAM for      wfcinit/wfcrot:       5.46 MB

     Dynamical RAM for           addusdens:     264.10 MB

     Dynamical RAM for          addusforce:     278.56 MB

     Dynamical RAM for         addusstress:     276.48 MB

     Estimated static dynamical RAM per process >     148.81 MB

     Estimated max dynamical RAM per process >     449.38 MB

     Check: negative core charge=   -0.000005

     Initial potential from superposition of free atoms

     starting charge      67.0945, renormalised to      68.0000
     Starting wfcs are   54 randomized atomic wfcs
     Checking if some PAW data can be deallocated... 

     total cpu time spent up to now is        1.1 secs

     per-process dynamical memory:   547.8 Mb

     Self-consistent Calculation
[tb_dev] Currently allocated     1.86E+00 Mbytes, locked:    0 /   3
[tb_pin] Currently allocated     0.00E+00 Mbytes, locked:    0 /   0

     iteration #  1     ecut=    60.00 Ry     beta= 0.70
     Davidson diagonalization with overlap

---- Real-time Memory Report at c_bands before calling an iterative solver
           975 MiB given to the printing process from OS
           534 MiB allocation reported by mallinfo(arena+hblkhd)
       1367885 MiB available memory on the node where the printing process lives
     GPU memory used/free/total (MiB): 2245 / 180396 / 182642
------------------
     ethr =  1.00E-02,  avg # of iterations =  1.6

     total cpu time spent up to now is        1.6 secs

     total energy              =    -934.60228027 Ry
     estimated scf accuracy    <       4.16196323 Ry
[tb_dev] Currently allocated     0.00E+00 Mbytes, locked:    0 /   0
[tb_pin] Currently allocated     0.00E+00 Mbytes, locked:    0 /   0

     iteration #  2     ecut=    60.00 Ry     beta= 0.70
     Davidson diagonalization with overlap

---- Real-time Memory Report at c_bands before calling an iterative solver
          1023 MiB given to the printing process from OS
           608 MiB allocation reported by mallinfo(arena+hblkhd)
       1367721 MiB available memory on the node where the printing process lives
     GPU memory used/free/total (MiB): 2245 / 180396 / 182642
------------------
     ethr =  6.12E-03,  avg # of iterations =  7.5

     total cpu time spent up to now is        2.6 secs

     total energy              =    -934.71122673 Ry
     estimated scf accuracy    <      10.98433518 Ry
[tb_dev] Currently allocated     0.00E+00 Mbytes, locked:    0 /   0
[tb_pin] Currently allocated     0.00E+00 Mbytes, locked:    0 /   0

     iteration #  3     ecut=    60.00 Ry     beta= 0.70
     Davidson diagonalization with overlap

---- Real-time Memory Report at c_bands before calling an iterative solver
          1031 MiB given to the printing process from OS
           611 MiB allocation reported by mallinfo(arena+hblkhd)
       1367465 MiB available memory on the node where the printing process lives
     GPU memory used/free/total (MiB): 2247 / 180394 / 182642
------------------
     ethr =  6.12E-03,  avg # of iterations =  4.6

     total cpu time spent up to now is        3.3 secs

     total energy              =    -936.61924398 Ry
     estimated scf accuracy    <       0.09139424 Ry
[tb_dev] Currently allocated     0.00E+00 Mbytes, locked:    0 /   0
[tb_pin] Currently allocated     0.00E+00 Mbytes, locked:    0 /   0

     iteration #  4     ecut=    60.00 Ry     beta= 0.70
     Davidson diagonalization with overlap

---- Real-time Memory Report at c_bands before calling an iterative solver
          1035 MiB given to the printing process from OS
           613 MiB allocation reported by mallinfo(arena+hblkhd)
       1367455 MiB available memory on the node where the printing process lives
     GPU memory used/free/total (MiB): 2247 / 180394 / 182642
------------------
     ethr =  1.34E-04,  avg # of iterations =  8.6

     total cpu time spent up to now is        4.4 secs

     total energy              =    -936.72423171 Ry
     estimated scf accuracy    <       0.32753345 Ry
[tb_dev] Currently allocated     0.00E+00 Mbytes, locked:    0 /   0
[tb_pin] Currently allocated     0.00E+00 Mbytes, locked:    0 /   0

     iteration #  5     ecut=    60.00 Ry     beta= 0.70
     Davidson diagonalization with overlap

---- Real-time Memory Report at c_bands before calling an iterative solver
          1037 MiB given to the printing process from OS
           615 MiB allocation reported by mallinfo(arena+hblkhd)
       1367428 MiB available memory on the node where the printing process lives
     GPU memory used/free/total (MiB): 2247 / 180394 / 182642
------------------
     ethr =  1.34E-04,  avg # of iterations =  5.9

     total cpu time spent up to now is        5.2 secs

     total energy              =    -936.81681168 Ry
     estimated scf accuracy    <       0.01926671 Ry
[tb_dev] Currently allocated     0.00E+00 Mbytes, locked:    0 /   0
[tb_pin] Currently allocated     0.00E+00 Mbytes, locked:    0 /   0

     iteration #  6     ecut=    60.00 Ry     beta= 0.70
     Davidson diagonalization with overlap

---- Real-time Memory Report at c_bands before calling an iterative solver
          1038 MiB given to the printing process from OS
           616 MiB allocation reported by mallinfo(arena+hblkhd)
       1367434 MiB available memory on the node where the printing process lives
     GPU memory used/free/total (MiB): 2247 / 180394 / 182642
------------------
     ethr =  2.83E-05,  avg # of iterations =  2.0

     total cpu time spent up to now is        5.7 secs

     total energy              =    -936.81333862 Ry
     estimated scf accuracy    <       0.00835179 Ry
[tb_dev] Currently allocated     0.00E+00 Mbytes, locked:    0 /   0
[tb_pin] Currently allocated     0.00E+00 Mbytes, locked:    0 /   0

     iteration #  7     ecut=    60.00 Ry     beta= 0.70
     Davidson diagonalization with overlap

---- Real-time Memory Report at c_bands before calling an iterative solver
          1039 MiB given to the printing process from OS
           617 MiB allocation reported by mallinfo(arena+hblkhd)
       1367464 MiB available memory on the node where the printing process lives
     GPU memory used/free/total (MiB): 2247 / 180394 / 182642
------------------
     ethr =  1.23E-05,  avg # of iterations =  4.2

     total cpu time spent up to now is        6.3 secs

     total energy              =    -936.81657411 Ry
     estimated scf accuracy    <       0.00050017 Ry
[tb_dev] Currently allocated     0.00E+00 Mbytes, locked:    0 /   0
[tb_pin] Currently allocated     0.00E+00 Mbytes, locked:    0 /   0

     iteration #  8     ecut=    60.00 Ry     beta= 0.70
     Davidson diagonalization with overlap

---- Real-time Memory Report at c_bands before calling an iterative solver
          1041 MiB given to the printing process from OS
           619 MiB allocation reported by mallinfo(arena+hblkhd)
       1366472 MiB available memory on the node where the printing process lives
     GPU memory used/free/total (MiB): 2247 / 180394 / 182642
------------------
     ethr =  7.36E-07,  avg # of iterations =  4.9

     total cpu time spent up to now is        7.0 secs

     total energy              =    -936.81641738 Ry
     estimated scf accuracy    <       0.00089902 Ry
[tb_dev] Currently allocated     0.00E+00 Mbytes, locked:    0 /   0
[tb_pin] Currently allocated     0.00E+00 Mbytes, locked:    0 /   0

     iteration #  9     ecut=    60.00 Ry     beta= 0.70
     Davidson diagonalization with overlap

---- Real-time Memory Report at c_bands before calling an iterative solver
          1042 MiB given to the printing process from OS
           620 MiB allocation reported by mallinfo(arena+hblkhd)
       1367031 MiB available memory on the node where the printing process lives
     GPU memory used/free/total (MiB): 2247 / 180394 / 182642
------------------
     ethr =  7.36E-07,  avg # of iterations =  2.8

     total cpu time spent up to now is        7.6 secs

     total energy              =    -936.81639875 Ry
     estimated scf accuracy    <       0.00019174 Ry
[tb_dev] Currently allocated     0.00E+00 Mbytes, locked:    0 /   0
[tb_pin] Currently allocated     0.00E+00 Mbytes, locked:    0 /   0

     iteration # 10     ecut=    60.00 Ry     beta= 0.70
     Davidson diagonalization with overlap

---- Real-time Memory Report at c_bands before calling an iterative solver
          1045 MiB given to the printing process from OS
           623 MiB allocation reported by mallinfo(arena+hblkhd)
       1367365 MiB available memory on the node where the printing process lives
     GPU memory used/free/total (MiB): 2247 / 180394 / 182642
------------------
     ethr =  2.82E-07,  avg # of iterations =  5.5

     total cpu time spent up to now is        8.3 secs

     total energy              =    -936.81649974 Ry
     estimated scf accuracy    <       0.00004117 Ry
[tb_dev] Currently allocated     0.00E+00 Mbytes, locked:    0 /   0
[tb_pin] Currently allocated     0.00E+00 Mbytes, locked:    0 /   0

     iteration # 11     ecut=    60.00 Ry     beta= 0.70
     Davidson diagonalization with overlap

---- Real-time Memory Report at c_bands before calling an iterative solver
          1046 MiB given to the printing process from OS
           623 MiB allocation reported by mallinfo(arena+hblkhd)
       1367389 MiB available memory on the node where the printing process lives
     GPU memory used/free/total (MiB): 2247 / 180394 / 182642
------------------
     ethr =  6.05E-08,  avg # of iterations =  1.5

     total cpu time spent up to now is        8.7 secs

     total energy              =    -936.81648815 Ry
     estimated scf accuracy    <       0.00003005 Ry
[tb_dev] Currently allocated     0.00E+00 Mbytes, locked:    0 /   0
[tb_pin] Currently allocated     0.00E+00 Mbytes, locked:    0 /   0

     iteration # 12     ecut=    60.00 Ry     beta= 0.70
     Davidson diagonalization with overlap

---- Real-time Memory Report at c_bands before calling an iterative solver
          1046 MiB given to the printing process from OS
           614 MiB allocation reported by mallinfo(arena+hblkhd)
       1367397 MiB available memory on the node where the printing process lives
     GPU memory used/free/total (MiB): 2247 / 180394 / 182642
------------------
     ethr =  4.42E-08,  avg # of iterations =  2.3

     total cpu time spent up to now is        9.2 secs

     total energy              =    -936.81649216 Ry
     estimated scf accuracy    <       0.00000234 Ry
[tb_dev] Currently allocated     0.00E+00 Mbytes, locked:    0 /   0
[tb_pin] Currently allocated     0.00E+00 Mbytes, locked:    0 /   0

     iteration # 13     ecut=    60.00 Ry     beta= 0.70
     Davidson diagonalization with overlap

---- Real-time Memory Report at c_bands before calling an iterative solver
          1046 MiB given to the printing process from OS
           623 MiB allocation reported by mallinfo(arena+hblkhd)
       1367430 MiB available memory on the node where the printing process lives
     GPU memory used/free/total (MiB): 2247 / 180394 / 182642
------------------
     ethr =  3.44E-09,  avg # of iterations =  5.3

     total cpu time spent up to now is       10.0 secs

     total energy              =    -936.81649379 Ry
     estimated scf accuracy    <       0.00000009 Ry
[tb_dev] Currently allocated     0.00E+00 Mbytes, locked:    0 /   0
[tb_pin] Currently allocated     0.00E+00 Mbytes, locked:    0 /   0

     iteration # 14     ecut=    60.00 Ry     beta= 0.70
     Davidson diagonalization with overlap

---- Real-time Memory Report at c_bands before calling an iterative solver
          1046 MiB given to the printing process from OS
           623 MiB allocation reported by mallinfo(arena+hblkhd)
       1367366 MiB available memory on the node where the printing process lives
     GPU memory used/free/total (MiB): 2247 / 180394 / 182642
------------------
     ethr =  1.31E-10,  avg # of iterations =  5.8

     total cpu time spent up to now is       10.7 secs

     total energy              =    -936.81649377 Ry
     estimated scf accuracy    <       0.00000020 Ry
[tb_dev] Currently allocated     0.00E+00 Mbytes, locked:    0 /   0
[tb_pin] Currently allocated     0.00E+00 Mbytes, locked:    0 /   0

     iteration # 15     ecut=    60.00 Ry     beta= 0.70
     Davidson diagonalization with overlap

---- Real-time Memory Report at c_bands before calling an iterative solver
          1046 MiB given to the printing process from OS
           623 MiB allocation reported by mallinfo(arena+hblkhd)
       1367367 MiB available memory on the node where the printing process lives
     GPU memory used/free/total (MiB): 2247 / 180394 / 182642
------------------
     ethr =  1.31E-10,  avg # of iterations =  2.2

     total cpu time spent up to now is       11.2 secs

     total energy              =    -936.81649376 Ry
     estimated scf accuracy    <       0.00000006 Ry
[tb_dev] Currently allocated     0.00E+00 Mbytes, locked:    0 /   0
[tb_pin] Currently allocated     0.00E+00 Mbytes, locked:    0 /   0

     iteration # 16     ecut=    60.00 Ry     beta= 0.70
     Davidson diagonalization with overlap

---- Real-time Memory Report at c_bands before calling an iterative solver
          1046 MiB given to the printing process from OS
           623 MiB allocation reported by mallinfo(arena+hblkhd)
       1367402 MiB available memory on the node where the printing process lives
     GPU memory used/free/total (MiB): 2247 / 180394 / 182642
------------------
     ethr =  8.54E-11,  avg # of iterations =  4.4

     total cpu time spent up to now is       11.9 secs

     total energy              =    -936.81649377 Ry
     estimated scf accuracy    <          1.1E-10 Ry
[tb_dev] Currently allocated     0.00E+00 Mbytes, locked:    0 /   0
[tb_pin] Currently allocated     0.00E+00 Mbytes, locked:    0 /   0

     iteration # 17     ecut=    60.00 Ry     beta= 0.70
     Davidson diagonalization with overlap

---- Real-time Memory Report at c_bands before calling an iterative solver
          1046 MiB given to the printing process from OS
           623 MiB allocation reported by mallinfo(arena+hblkhd)
       1367370 MiB available memory on the node where the printing process lives
     GPU memory used/free/total (MiB): 2247 / 180394 / 182642
------------------
     ethr =  1.56E-13,  avg # of iterations = 11.3

     total cpu time spent up to now is       13.2 secs

     total energy              =    -936.81649377 Ry
     estimated scf accuracy    <          1.3E-10 Ry
[tb_dev] Currently allocated     0.00E+00 Mbytes, locked:    0 /   0
[tb_pin] Currently allocated     0.00E+00 Mbytes, locked:    0 /   0

     iteration # 18     ecut=    60.00 Ry     beta= 0.70
     Davidson diagonalization with overlap

---- Real-time Memory Report at c_bands before calling an iterative solver
          1046 MiB given to the printing process from OS
           623 MiB allocation reported by mallinfo(arena+hblkhd)
       1367404 MiB available memory on the node where the printing process lives
     GPU memory used/free/total (MiB): 2247 / 180394 / 182642
------------------
     ethr =  1.56E-13,  avg # of iterations =  4.6

     total cpu time spent up to now is       13.9 secs

     total energy              =    -936.81649377 Ry
     estimated scf accuracy    <          6.1E-10 Ry
[tb_dev] Currently allocated     0.00E+00 Mbytes, locked:    0 /   0
[tb_pin] Currently allocated     0.00E+00 Mbytes, locked:    0 /   0

     iteration # 19     ecut=    60.00 Ry     beta= 0.70
     Davidson diagonalization with overlap

---- Real-time Memory Report at c_bands before calling an iterative solver
          1046 MiB given to the printing process from OS
           623 MiB allocation reported by mallinfo(arena+hblkhd)
       1367376 MiB available memory on the node where the printing process lives
     GPU memory used/free/total (MiB): 2247 / 180394 / 182642
------------------
     ethr =  1.56E-13,  avg # of iterations =  6.3

     total cpu time spent up to now is       14.8 secs

     total energy              =    -936.81649377 Ry
     estimated scf accuracy    <          1.4E-12 Ry
[tb_dev] Currently allocated     0.00E+00 Mbytes, locked:    0 /   0
[tb_pin] Currently allocated     0.00E+00 Mbytes, locked:    0 /   0

     iteration # 20     ecut=    60.00 Ry     beta= 0.70
     Davidson diagonalization with overlap

---- Real-time Memory Report at c_bands before calling an iterative solver
          1046 MiB given to the printing process from OS
           623 MiB allocation reported by mallinfo(arena+hblkhd)
       1367417 MiB available memory on the node where the printing process lives
     GPU memory used/free/total (MiB): 2247 / 180394 / 182642
------------------
     ethr =  1.00E-13,  avg # of iterations =  1.0

     total cpu time spent up to now is       15.2 secs

     total energy              =    -936.81649377 Ry
     estimated scf accuracy    <          1.4E-12 Ry
[tb_dev] Currently allocated     0.00E+00 Mbytes, locked:    0 /   0
[tb_pin] Currently allocated     0.00E+00 Mbytes, locked:    0 /   0

     iteration # 21     ecut=    60.00 Ry     beta= 0.70
     Davidson diagonalization with overlap

---- Real-time Memory Report at c_bands before calling an iterative solver
          1046 MiB given to the printing process from OS
           623 MiB allocation reported by mallinfo(arena+hblkhd)
       1367375 MiB available memory on the node where the printing process lives
     GPU memory used/free/total (MiB): 2247 / 180394 / 182642
------------------
     ethr =  1.00E-13,  avg # of iterations =  1.0

     total cpu time spent up to now is       15.6 secs

     End of self-consistent calculation

          k = 0.0000 0.0000 0.0000 (  5265 PWs)   bands (ev):

   -45.6038 -45.5806 -33.5981 -33.5938 -22.1200 -22.1200 -22.0294 -21.8994
   -21.8994 -21.7667  -8.9967  -8.3092  -8.3092  -7.0940  -6.8458  -6.8458
     3.3141   3.3141   3.4848   3.5654   3.5654   4.7620   5.9849   6.0459
     6.0459   6.7835   7.2688   7.2688   7.4264   7.4681   7.4681   7.6836
     8.1204   8.1204

     occupation numbers 
     1.0000   1.0000   1.0000   1.0000   1.0000   1.0000   1.0000   1.0000
     1.0000   1.0000   1.0000   1.0000   1.0000   1.0000   1.0000   1.0000
     1.0000   1.0000   1.0000   1.0000   1.0000   1.0000   1.0000   1.0000
     1.0000   1.0000   1.0000   1.0000   1.0000   1.0000   1.0000   1.0000
     1.0000   1.0000

          k = 0.0000-0.2054 0.0661 (  5241 PWs)   bands (ev):

   -45.6022 -45.5821 -33.5979 -33.5941 -22.1083 -22.1062 -22.0115 -21.9168
   -21.9152 -21.7843  -8.8669  -8.2298  -8.2274  -7.1920  -6.9802  -6.9626
     3.2449   3.3504   3.6172   3.8837   3.9145   4.7997   5.6422   5.7226
     5.8293   6.7884   7.0168   7.2735   7.2851   7.5986   7.6735   7.7486
     7.9613   8.0460

     occupation numbers 
     1.0000   1.0000   1.0000   1.0000   1.0000   1.0000   1.0000   1.0000
     1.0000   1.0000   1.0000   1.0000   1.0000   1.0000   1.0000   1.0000
     1.0000   1.0000   1.0000   1.0000   1.0000   1.0000   1.0000   1.0000
     1.0000   1.0000   1.0000   1.0000   1.0000   1.0000   1.0000   1.0000
     1.0000   1.0000

          k = 0.0000-0.4108 0.1321 (  5241 PWs)   bands (ev):

   -45.5979 -45.5863 -33.5972 -33.5950 -22.0737 -22.0679 -21.9636 -21.9626
   -21.9574 -21.8324  -8.5089  -8.0139  -8.0008  -7.4832  -7.3086  -7.2592
     3.4245   3.5969   3.9412   4.5137   4.5248   4.8657   4.8665   5.2453
     5.5055   6.2465   6.6180   6.9432   7.5325   7.5935   7.6233   7.7990
     7.9157   8.0667

     occupation numbers 
     1.0000   1.0000   1.0000   1.0000   1.0000   1.0000   1.0000   1.0000
     1.0000   1.0000   1.0000   1.0000   1.0000   1.0000   1.0000   1.0000
     1.0000   1.0000   1.0000   1.0000   1.0000   1.0000   1.0000   1.0000
     1.0000   1.0000   1.0000   1.0000   1.0000   1.0000   1.0000   1.0000
     1.0000   1.0000

          k =-0.0000 0.6162-0.1982 (  5264 PWs)   bands (ev):

   -45.5921 -45.5921 -33.5961 -33.5961 -22.0209 -22.0209 -22.0138 -22.0138
   -21.8979 -21.8979  -8.0316  -8.0316  -7.6958  -7.6958  -7.5887  -7.5887
     3.8485   3.8485   4.1200   4.1200   4.7114   4.7114   5.2381   5.2381
     5.7009   5.7009   6.2343   6.2343   7.6604   7.6604   7.8412   7.8412
     7.9201   7.9201

     occupation numbers 
     1.0000   1.0000   1.0000   1.0000   1.0000   1.0000   1.0000   1.0000
     1.0000   1.0000   1.0000   1.0000   1.0000   1.0000   1.0000   1.0000
     1.0000   1.0000   1.0000   1.0000   1.0000   1.0000   1.0000   1.0000
     1.0000   1.0000   1.0000   1.0000   1.0000   1.0000   1.0000   1.0000
     1.0000   1.0000

          k =-0.1779-0.1027 0.1321 (  5250 PWs)   bands (ev):

   -45.6018 -45.5825 -33.5978 -33.5942 -22.1242 -22.0951 -21.9957 -21.9498
   -21.8965 -21.7818  -8.8618  -8.2853  -8.0998  -7.3360  -6.9897  -6.8910
     3.3298   3.3477   3.5168   3.8577   4.0509   4.9554   5.2428   5.9085
     5.9943   6.7851   6.9458   7.1327   7.3047   7.4469   7.6111   7.7186
     8.0066   8.0613

     occupation numbers 
     1.0000   1.0000   1.0000   1.0000   1.0000   1.0000   1.0000   1.0000
     1.0000   1.0000   1.0000   1.0000   1.0000   1.0000   1.0000   1.0000
     1.0000   1.0000   1.0000   1.0000   1.0000   1.0000   1.0000   1.0000
     1.0000   1.0000   1.0000   1.0000   1.0000   1.0000   1.0000   1.0000
     1.0000   1.0000

          k =-0.1779-0.3081 0.1982 (  5238 PWs)   bands (ev):

   -45.5988 -45.5854 -33.5974 -33.5948 -22.1147 -22.0729 -22.0073 -21.9421
   -21.9113 -21.8042  -8.6588  -8.1860  -7.8405  -7.6566  -7.1297  -7.0516
     3.2397   3.5425   3.9602   4.1540   4.3750   4.6537   5.2345   5.4531
     5.8853   6.4254   6.8545   7.0986   7.2436   7.3822   7.5077   7.7647
     7.9032   8.0570

     occupation numbers 
     1.0000   1.0000   1.0000   1.0000   1.0000   1.0000   1.0000   1.0000
     1.0000   1.0000   1.0000   1.0000   1.0000   1.0000   1.0000   1.0000
     1.0000   1.0000   1.0000   1.0000   1.0000   1.0000   1.0000   1.0000
     1.0000   1.0000   1.0000   1.0000   1.0000   1.0000   1.0000   1.0000
     1.0000   1.0000

          k =-0.1779 0.7189-0.1321 (  5239 PWs)   bands (ev):

   -45.5940 -45.5901 -33.5965 -33.5958 -22.0795 -22.0644 -22.0293 -21.9553
   -21.8807 -21.8524  -8.2902  -8.0831  -7.9512  -7.4537  -7.4389  -7.3610
     3.4466   3.7353   3.9875   4.4174   4.6561   4.7901   5.0179   5.2744
     5.5623   6.0863   6.5584   6.8685   7.2858   7.5407   7.5686   7.7057
     7.9080   8.0132

     occupation numbers 
     1.0000   1.0000   1.0000   1.0000   1.0000   1.0000   1.0000   1.0000
     1.0000   1.0000   1.0000   1.0000   1.0000   1.0000   1.0000   1.0000
     1.0000   1.0000   1.0000   1.0000   1.0000   1.0000   1.0000   1.0000
     1.0000   1.0000   1.0000   1.0000   1.0000   1.0000   1.0000   1.0000
     1.0000   1.0000

          k =-0.1779 0.5135-0.0661 (  5231 PWs)   bands (ev):

   -45.5954 -45.5887 -33.5968 -33.5955 -22.1033 -22.0248 -22.0134 -21.9732
   -21.9156 -21.8309  -8.4289  -7.9078  -7.8067  -7.6927  -7.5985  -7.1375
     3.4087   3.8265   4.0009   4.1515   4.3949   4.8777   5.2023   5.3889
     5.6959   6.0877   6.3981   7.1363   7.1808   7.4065   7.6181   7.8388
     7.8919   8.0435

     occupation numbers 
     1.0000   1.0000   1.0000   1.0000   1.0000   1.0000   1.0000   1.0000
     1.0000   1.0000   1.0000   1.0000   1.0000   1.0000   1.0000   1.0000
     1.0000   1.0000   1.0000   1.0000   1.0000   1.0000   1.0000   1.0000
     1.0000   1.0000   1.0000   1.0000   1.0000   1.0000   1.0000   1.0000
     1.0000   1.0000

          k =-0.1779 0.3081 0.0000 (  5224 PWs)   bands (ev):

   -45.5998 -45.5844 -33.5975 -33.5946 -22.1156 -22.0686 -21.9766 -21.9642
   -21.9260 -21.8006  -8.7025  -8.1511  -8.0269  -7.4001  -7.2625  -6.9693
     3.2864   3.4698   3.8285   3.8951   4.5301   4.8688   5.0158   5.3583
     5.9885   6.6547   6.8966   7.0409   7.3621   7.5270   7.5908   7.7814
     7.8347   8.0973

     occupation numbers 
     1.0000   1.0000   1.0000   1.0000   1.0000   1.0000   1.0000   1.0000
     1.0000   1.0000   1.0000   1.0000   1.0000   1.0000   1.0000   1.0000
     1.0000   1.0000   1.0000   1.0000   1.0000   1.0000   1.0000   1.0000
     1.0000   1.0000   1.0000   1.0000   1.0000   1.0000   1.0000   1.0000
     1.0000   1.0000

          k =-0.3558-0.2054 0.2642 (  5226 PWs)   bands (ev):

   -45.5979 -45.5863 -33.5973 -33.5950 -22.1324 -22.0853 -22.0681 -21.8916
   -21.8836 -21.7903  -8.6842  -8.2371  -7.9693  -7.5325  -7.0609  -6.9855
     3.2846   3.3701   3.7284   3.9071   4.4307   4.7760   5.5319   5.7409
     6.2915   6.4678   6.7010   7.0050   7.0523   7.3168   7.3942   7.6798
     7.7461   7.9655

     occupation numbers 
     1.0000   1.0000   1.0000   1.0000   1.0000   1.0000   1.0000   1.0000
     1.0000   1.0000   1.0000   1.0000   1.0000   1.0000   1.0000   1.0000
     1.0000   1.0000   1.0000   1.0000   1.0000   1.0000   1.0000   1.0000
     1.0000   1.0000   1.0000   1.0000   1.0000   1.0000   1.0000   1.0000
     1.0000   1.0000

          k =-0.3558 0.8217-0.0661 (  5227 PWs)   bands (ev):

   -45.5954 -45.5887 -33.5968 -33.5955 -22.1219 -22.1110 -22.0695 -21.9064
   -21.8384 -21.8077  -8.5286  -8.2267  -8.1353  -7.2655  -7.1829  -7.1293
     3.1977   3.4310   3.6561   4.0050   4.6801   5.0658   5.2976   5.7496
     6.0436   6.4604   6.7057   6.8661   7.0302   7.2415   7.4275   7.5311
     7.7737   8.0103

     occupation numbers 
     1.0000   1.0000   1.0000   1.0000   1.0000   1.0000   1.0000   1.0000
     1.0000   1.0000   1.0000   1.0000   1.0000   1.0000   1.0000   1.0000
     1.0000   1.0000   1.0000   1.0000   1.0000   1.0000   1.0000   1.0000
     1.0000   1.0000   1.0000   1.0000   1.0000   1.0000   1.0000   1.0000
     1.0000   1.0000

          k =-0.3558 0.6162 0.0000 (  5244 PWs)   bands (ev):

   -45.5921 -45.5921 -33.5962 -33.5962 -22.1235 -22.0830 -22.0260 -21.9523
   -21.8542 -21.8209  -8.3756  -8.2189  -7.9241  -7.4919  -7.3960  -7.1127
     3.2818   3.4614   3.9755   4.2647   4.6267   4.7748   5.2187   5.6280
     5.9537   6.2106   6.5341   6.7924   7.2461   7.2939   7.4402   7.7279
     7.7757   8.0350

     occupation numbers 
     1.0000   1.0000   1.0000   1.0000   1.0000   1.0000   1.0000   1.0000
     1.0000   1.0000   1.0000   1.0000   1.0000   1.0000   1.0000   1.0000
     1.0000   1.0000   1.0000   1.0000   1.0000   1.0000   1.0000   1.0000
     1.0000   1.0000   1.0000   1.0000   1.0000   1.0000   1.0000   1.0000
     1.0000   1.0000

          k = 0.5337 0.3081-0.3963 (  5216 PWs)   bands (ev):

   -45.5959 -45.5882 -33.5970 -33.5954 -22.1371 -22.1286 -22.0862 -21.8880
   -21.8210 -21.7907  -8.6174  -8.2872  -8.1961  -7.1926  -7.0866  -7.0321
     3.2672   3.2889   3.3570   3.6807   5.0124   5.2971   5.6006   5.9757
     6.0708   6.2216   6.6556   6.7204   7.0852   7.2185   7.3738   7.5551
     7.7391   7.9222

     occupation numbers 
     1.0000   1.0000   1.0000   1.0000   1.0000   1.0000   1.0000   1.0000
     1.0000   1.0000   1.0000   1.0000   1.0000   1.0000   1.0000   1.0000
     1.0000   1.0000   1.0000   1.0000   1.0000   1.0000   1.0000   1.0000
     1.0000   1.0000   1.0000   1.0000   1.0000   1.0000   1.0000   1.0000
     1.0000   1.0000

          k =-0.0000 0.0000 0.1982 (  5235 PWs)   bands (ev):

   -45.6022 -45.5821 -33.5978 -33.5941 -22.1059 -22.1059 -22.0131 -21.9149
   -21.9149 -21.7857  -8.8816  -8.2217  -8.2217  -7.2376  -6.9575  -6.9575
     3.4113   3.4113   3.6373   3.8166   3.8166   4.8748   5.7236   5.7978
     5.7978   6.9003   6.9101   6.9101   7.2056   7.4772   7.4772   7.7085
     8.1429   8.1429

     occupation numbers 
     1.0000   1.0000   1.0000   1.0000   1.0000   1.0000   1.0000   1.0000
     1.0000   1.0000   1.0000   1.0000   1.0000   1.0000   1.0000   1.0000
     1.0000   1.0000   1.0000   1.0000   1.0000   1.0000   1.0000   1.0000
     1.0000   1.0000   1.0000   1.0000   1.0000   1.0000   1.0000   1.0000
     1.0000   1.0000

          k =-0.0000-0.2054 0.2642 (  5227 PWs)   bands (ev):

   -45.5999 -45.5844 -33.5975 -33.5946 -22.1159 -22.0636 -21.9795 -21.9603
   -21.9273 -21.8019  -8.7228  -8.1413  -8.0182  -7.4679  -7.2176  -6.9722
     3.3366   3.5240   3.8740   4.1147   4.3692   5.0006   5.1776   5.3779
     5.7567   6.3535   6.7659   7.0388   7.1010   7.4959   7.6634   7.7089
     7.9993   8.0665

     occupation numbers 
     1.0000   1.0000   1.0000   1.0000   1.0000   1.0000   1.0000   1.0000
     1.0000   1.0000   1.0000   1.0000   1.0000   1.0000   1.0000   1.0000
     1.0000   1.0000   1.0000   1.0000   1.0000   1.0000   1.0000   1.0000
     1.0000   1.0000   1.0000   1.0000   1.0000   1.0000   1.0000   1.0000
     1.0000   1.0000

          k =-0.0000 0.8217-0.0661 (  5226 PWs)   bands (ev):

   -45.5954 -45.5888 -33.5967 -33.5955 -22.1049 -22.0196 -22.0075 -21.9773
   -21.9188 -21.8310  -8.4342  -7.8945  -7.8849  -7.6707  -7.5540  -7.1518
     3.3581   3.7548   4.3203   4.4079   4.5844   4.8444   4.8615   5.4205
     5.6218   5.7449   6.4604   6.9827   7.3175   7.3727   7.6950   7.7341
     7.9066   7.9579

     occupation numbers 
     1.0000   1.0000   1.0000   1.0000   1.0000   1.0000   1.0000   1.0000
     1.0000   1.0000   1.0000   1.0000   1.0000   1.0000   1.0000   1.0000
     1.0000   1.0000   1.0000   1.0000   1.0000   1.0000   1.0000   1.0000
     1.0000   1.0000   1.0000   1.0000   1.0000   1.0000   1.0000   1.0000
     1.0000   1.0000

          k =-0.0000 0.6162 0.0000 (  5252 PWs)   bands (ev):

   -45.5940 -45.5902 -33.5966 -33.5957 -22.0758 -22.0663 -22.0342 -21.9513
   -21.8800 -21.8541  -8.2978  -8.0818  -7.9358  -7.4709  -7.4524  -7.3393
     3.6442   3.7321   3.8908   4.0681   4.5417   4.8605   5.2214   5.4205
     5.7396   6.0671   6.4953   6.7439   7.2618   7.5043   7.5797   7.7463
     7.8163   8.0448

     occupation numbers 
     1.0000   1.0000   1.0000   1.0000   1.0000   1.0000   1.0000   1.0000
     1.0000   1.0000   1.0000   1.0000   1.0000   1.0000   1.0000   1.0000
     1.0000   1.0000   1.0000   1.0000   1.0000   1.0000   1.0000   1.0000
     1.0000   1.0000   1.0000   1.0000   1.0000   1.0000   1.0000   1.0000
     1.0000   1.0000

          k =-0.0000 0.4108 0.0661 (  5250 PWs)   bands (ev):

   -45.5988 -45.5854 -33.5974 -33.5948 -22.1134 -22.0757 -22.0087 -21.9414
   -21.9102 -21.8043  -8.6532  -8.1929  -7.8214  -7.6645  -7.1406  -7.0415
     3.4042   3.5084   3.5844   4.3227   4.3310   4.5482   5.2533   5.6021
     5.8916   6.6170   6.9061   7.1178   7.1864   7.2819   7.5516   7.7602
     7.8787   8.0617

     occupation numbers 
     1.0000   1.0000   1.0000   1.0000   1.0000   1.0000   1.0000   1.0000
     1.0000   1.0000   1.0000   1.0000   1.0000   1.0000   1.0000   1.0000
     1.0000   1.0000   1.0000   1.0000   1.0000   1.0000   1.0000   1.0000
     1.0000   1.0000   1.0000   1.0000   1.0000   1.0000   1.0000   1.0000
     1.0000   1.0000

          k =-0.1779-0.1027 0.3303 (  5250 PWs)   bands (ev):

   -45.5988 -45.5855 -33.5973 -33.5948 -22.1128 -22.0720 -22.0060 -21.9434
   -21.9095 -21.8060  -8.6809  -8.1739  -7.8135  -7.7039  -7.1478  -7.0307
     3.4865   3.5061   3.9454   4.2697   4.2846   4.6907   5.2826   5.5855
     5.7716   6.3567   6.6256   7.0490   7.1116   7.2583   7.4174   7.7538
     7.9339   8.0662

     occupation numbers 
     1.0000   1.0000   1.0000   1.0000   1.0000   1.0000   1.0000   1.0000
     1.0000   1.0000   1.0000   1.0000   1.0000   1.0000   1.0000   1.0000
     1.0000   1.0000   1.0000   1.0000   1.0000   1.0000   1.0000   1.0000
     1.0000   1.0000   1.0000   1.0000   1.0000   1.0000   1.0000   1.0000
     1.0000   1.0000

          k =-0.1779 0.9244 0.0000 (  5223 PWs)   bands (ev):

   -45.5960 -45.5882 -33.5969 -33.5954 -22.1210 -22.0655 -22.0403 -21.9326
   -21.8835 -21.8120  -8.5410  -8.0575  -8.0238  -7.4956  -7.3747  -7.0522
     3.3273   3.6158   3.9874   4.3547   4.4940   4.8222   5.0391   5.5914
     5.8828   6.2660   6.6179   6.8586   7.0604   7.2370   7.4760   7.6797
     7.8285   7.9582

     occupation numbers 
     1.0000   1.0000   1.0000   1.0000   1.0000   1.0000   1.0000   1.0000
     1.0000   1.0000   1.0000   1.0000   1.0000   1.0000   1.0000   1.0000
     1.0000   1.0000   1.0000   1.0000   1.0000   1.0000   1.0000   1.0000
     1.0000   1.0000   1.0000   1.0000   1.0000   1.0000   1.0000   1.0000
     1.0000   1.0000

          k =-0.1779 0.7189 0.0661 (  5230 PWs)   bands (ev):

   -45.5921 -45.5921 -33.5962 -33.5961 -22.1090 -22.1072 -21.9875 -21.9847
   -21.8358 -21.8348  -8.3288  -8.3108  -7.7978  -7.6792  -7.2171  -7.1946
     3.3579   3.4987   3.8747   4.1723   4.7128   5.1238   5.1605   5.4564
     5.7815   6.2412   6.7370   6.8763   6.9416   7.2457   7.4629   7.6708
     7.8246   7.9617

     occupation numbers 
     1.0000   1.0000   1.0000   1.0000   1.0000   1.0000   1.0000   1.0000
     1.0000   1.0000   1.0000   1.0000   1.0000   1.0000   1.0000   1.0000
     1.0000   1.0000   1.0000   1.0000   1.0000   1.0000   1.0000   1.0000
     1.0000   1.0000   1.0000   1.0000   1.0000   1.0000   1.0000   1.0000
     1.0000   1.0000

          k =-0.1779 0.5135 0.1321 (  5236 PWs)   bands (ev):

   -45.5959 -45.5882 -33.5969 -33.5954 -22.1209 -22.0676 -22.0434 -21.9326
   -21.8821 -21.8112  -8.5256  -8.0650  -8.0031  -7.4952  -7.3825  -7.0458
     3.2764   3.6338   3.8140   4.0906   4.4555   4.8953   5.1041   5.7287
     5.9296   6.4721   6.5577   6.8950   7.2141   7.3918   7.5009   7.5910
     7.8176   8.0439

     occupation numbers 
     1.0000   1.0000   1.0000   1.0000   1.0000   1.0000   1.0000   1.0000
     1.0000   1.0000   1.0000   1.0000   1.0000   1.0000   1.0000   1.0000
     1.0000   1.0000   1.0000   1.0000   1.0000   1.0000   1.0000   1.0000
     1.0000   1.0000   1.0000   1.0000   1.0000   1.0000   1.0000   1.0000
     1.0000   1.0000

          k = 0.7116 0.4108-0.3303 (  5217 PWs)   bands (ev):

   -45.5954 -45.5887 -33.5968 -33.5955 -22.1203 -22.1105 -22.0698 -21.9047
   -21.8387 -21.8090  -8.5437  -8.2346  -8.1233  -7.2691  -7.2038  -7.1120
     3.4367   3.4679   3.5143   3.9733   4.7811   4.9685   5.3992   5.6960
     6.2278   6.3293   6.6981   6.7026   7.1016   7.1658   7.3827   7.4170
     7.6533   7.9957

     occupation numbers 
     1.0000   1.0000   1.0000   1.0000   1.0000   1.0000   1.0000   1.0000
     1.0000   1.0000   1.0000   1.0000   1.0000   1.0000   1.0000   1.0000
     1.0000   1.0000   1.0000   1.0000   1.0000   1.0000   1.0000   1.0000
     1.0000   1.0000   1.0000   1.0000   1.0000   1.0000   1.0000   1.0000
     1.0000   1.0000

          k = 0.7116 0.2054-0.2642 (  5225 PWs)   bands (ev):

   -45.5940 -45.5901 -33.5966 -33.5958 -22.1269 -22.1240 -22.0410 -21.9303
   -21.8212 -21.8121  -8.4697  -8.3274  -8.0133  -7.4221  -7.1539  -7.0866
     3.2714   3.3101   3.6471   4.2177   4.5107   5.2870   5.4625   5.6938
     6.1358   6.3009   6.5418   6.6984   6.9777   7.1621   7.4560   7.6074
     7.7169   7.9856

     occupation numbers 
     1.0000   1.0000   1.0000   1.0000   1.0000   1.0000   1.0000   1.0000
     1.0000   1.0000   1.0000   1.0000   1.0000   1.0000   1.0000   1.0000
     1.0000   1.0000   1.0000   1.0000   1.0000   1.0000   1.0000   1.0000
     1.0000   1.0000   1.0000   1.0000   1.0000   1.0000   1.0000   1.0000
     1.0000   1.0000

          k = 0.7116-0.0000-0.1982 (  5228 PWs)   bands (ev):

   -45.5921 -45.5921 -33.5962 -33.5962 -22.1083 -22.1083 -21.9868 -21.9868
   -21.8348 -21.8348  -8.3156  -8.3156  -7.7416  -7.7416  -7.2025  -7.2025
     3.3694   3.3694   4.0594   4.0594   4.8279   4.8279   5.3353   5.3353
     6.0111   6.0111   6.8284   6.8284   7.1831   7.1831   7.5720   7.5720
     7.9322   7.9322

     occupation numbers 
     1.0000   1.0000   1.0000   1.0000   1.0000   1.0000   1.0000   1.0000
     1.0000   1.0000   1.0000   1.0000   1.0000   1.0000   1.0000   1.0000
     1.0000   1.0000   1.0000   1.0000   1.0000   1.0000   1.0000   1.0000
     1.0000   1.0000   1.0000   1.0000   1.0000   1.0000   1.0000   1.0000
     1.0000   1.0000

          k = 0.5337 0.3081-0.1982 (  5240 PWs)   bands (ev):

   -45.5954 -45.5887 -33.5969 -33.5955 -22.1207 -22.1114 -22.0710 -21.9050
   -21.8383 -21.8085  -8.5314  -8.2299  -8.1269  -7.2710  -7.1918  -7.1170
     3.3600   3.4639   3.4954   3.8208   4.7510   5.1077   5.4317   5.6760
     6.1538   6.3218   6.7939   7.0091   7.0739   7.0792   7.4027   7.5247
     7.6398   8.0177

     occupation numbers 
     1.0000   1.0000   1.0000   1.0000   1.0000   1.0000   1.0000   1.0000
     1.0000   1.0000   1.0000   1.0000   1.0000   1.0000   1.0000   1.0000
     1.0000   1.0000   1.0000   1.0000   1.0000   1.0000   1.0000   1.0000
     1.0000   1.0000   1.0000   1.0000   1.0000   1.0000   1.0000   1.0000
     1.0000   1.0000

          k =-0.0000 0.0000 0.3963 (  5232 PWs)   bands (ev):

   -45.5979 -45.5864 -33.5971 -33.5950 -22.0669 -22.0669 -21.9678 -21.9566
   -21.9566 -21.8366  -8.5600  -7.9765  -7.9765  -7.6150  -7.2503  -7.2503
     3.7737   3.7737   4.0364   4.4362   4.4362   5.1435   5.1435   5.1663
     5.2380   6.1719   6.1719   6.5958   7.1862   7.5718   7.5718   7.6840
     8.0431   8.0431

     occupation numbers 
     1.0000   1.0000   1.0000   1.0000   1.0000   1.0000   1.0000   1.0000
     1.0000   1.0000   1.0000   1.0000   1.0000   1.0000   1.0000   1.0000
     1.0000   1.0000   1.0000   1.0000   1.0000   1.0000   1.0000   1.0000
     1.0000   1.0000   1.0000   1.0000   1.0000   1.0000   1.0000   1.0000
     1.0000   1.0000

          k =-0.0000 1.0271 0.0661 (  5230 PWs)   bands (ev):

   -45.5955 -45.5888 -33.5967 -33.5955 -22.1019 -22.0189 -22.0067 -21.9740
   -21.9205 -21.8330  -8.4636  -7.9044  -7.8589  -7.6904  -7.5670  -7.1415
     3.6088   3.9157   4.1880   4.5087   4.5610   4.7918   5.0881   5.4363
     5.5481   5.6262   6.2161   6.8231   7.1631   7.2003   7.6874   7.7742
     7.8653   7.9162

     occupation numbers 
     1.0000   1.0000   1.0000   1.0000   1.0000   1.0000   1.0000   1.0000
     1.0000   1.0000   1.0000   1.0000   1.0000   1.0000   1.0000   1.0000
     1.0000   1.0000   1.0000   1.0000   1.0000   1.0000   1.0000   1.0000
     1.0000   1.0000   1.0000   1.0000   1.0000   1.0000   1.0000   1.0000
     1.0000   1.0000

          k =-0.0000 0.8217 0.1321 (  5223 PWs)   bands (ev):

   -45.5921 -45.5921 -33.5962 -33.5961 -22.1235 -22.0788 -22.0284 -21.9475
   -21.8572 -21.8214  -8.3837  -8.2507  -7.9059  -7.5030  -7.3826  -7.1206
     3.3380   3.7243   3.8753   4.3139   4.6140   4.6959   5.4428   5.5598
     6.0144   6.1113   6.6157   6.6352   6.8909   7.2244   7.4991   7.5650
     7.7308   8.0150

     occupation numbers 
     1.0000   1.0000   1.0000   1.0000   1.0000   1.0000   1.0000   1.0000
     1.0000   1.0000   1.0000   1.0000   1.0000   1.0000   1.0000   1.0000
     1.0000   1.0000   1.0000   1.0000   1.0000   1.0000   1.0000   1.0000
     1.0000   1.0000   1.0000   1.0000   1.0000   1.0000   1.0000   1.0000
     1.0000   1.0000

          k = 0.8895 0.5135-0.2642 (  5228 PWs)   bands (ev):

   -45.5941 -45.5902 -33.5965 -33.5957 -22.0746 -22.0624 -22.0292 -21.9503
   -21.8827 -21.8564  -8.3404  -8.1105  -7.9164  -7.4766  -7.4583  -7.3295
     3.8665   3.9056   4.0490   4.4886   4.6806   4.7306   4.9457   5.2227
     5.6512   5.9359   6.3124   6.4629   7.2494   7.3354   7.4987   7.7050
     7.7405   7.9828

     occupation numbers 
     1.0000   1.0000   1.0000   1.0000   1.0000   1.0000   1.0000   1.0000
     1.0000   1.0000   1.0000   1.0000   1.0000   1.0000   1.0000   1.0000
     1.0000   1.0000   1.0000   1.0000   1.0000   1.0000   1.0000   1.0000
     1.0000   1.0000   1.0000   1.0000   1.0000   1.0000   1.0000   1.0000
     1.0000   1.0000

          k = 0.8895 0.3081-0.1982 (  5224 PWs)   bands (ev):

   -45.5921 -45.5921 -33.5961 -33.5961 -22.1068 -22.1068 -21.9849 -21.9849
   -21.8362 -21.8362  -8.3358  -8.3358  -7.7357  -7.7357  -7.2062  -7.2062
     3.5491   3.5491   4.0061   4.0061   5.0059   5.0059   5.2220   5.2220
     6.0214   6.0214   6.6181   6.6181   7.1241   7.1241   7.4538   7.4538
     7.8812   7.8812

     occupation numbers 
     1.0000   1.0000   1.0000   1.0000   1.0000   1.0000   1.0000   1.0000
     1.0000   1.0000   1.0000   1.0000   1.0000   1.0000   1.0000   1.0000
     1.0000   1.0000   1.0000   1.0000   1.0000   1.0000   1.0000   1.0000
     1.0000   1.0000   1.0000   1.0000   1.0000   1.0000   1.0000   1.0000
     1.0000   1.0000

          k =-0.0000 0.0000-0.5945 (  5194 PWs)   bands (ev):

   -45.5921 -45.5921 -33.5961 -33.5961 -22.0125 -22.0125 -22.0125 -22.0125
   -21.9036 -21.9036  -8.1011  -8.1011  -7.6251  -7.6251  -7.6251  -7.6251
     4.3852   4.3852   4.3852   4.3852   4.5707   4.5707   5.2813   5.2813
     5.2813   5.2813   5.8556   5.8556   7.4937   7.4937   7.8083   7.8083
     7.8083   7.8083

     occupation numbers 
     1.0000   1.0000   1.0000   1.0000   1.0000   1.0000   1.0000   1.0000
     1.0000   1.0000   1.0000   1.0000   1.0000   1.0000   1.0000   1.0000
     1.0000   1.0000   1.0000   1.0000   1.0000   1.0000   1.0000   1.0000
     1.0000   1.0000   1.0000   1.0000   1.0000   1.0000   1.0000   1.0000
     1.0000   1.0000

     highest occupied level (ev):     8.1429

!    total energy              =    -936.81649377 Ry
     estimated scf accuracy    <          6.7E-13 Ry

     The total energy is the sum of the following terms:
     one-electron contribution =    -128.91423115 Ry
     hartree contribution      =     101.70612913 Ry
     xc contribution           =    -108.73108500 Ry
     ewald contribution        =    -337.41816156 Ry
     one-center paw contrib.   =    -463.45914519 Ry
      -> PAW hartree energy AE =     299.08990918 Ry
      -> PAW hartree energy PS =    -297.54713858 Ry
      -> PAW xc energy AE      =    -561.48891969 Ry
      -> PAW xc energy PS      =      96.48700390 Ry
      -> total E_H with PAW    =     103.24889973 Ry
      -> total E_XC with PAW   =    -573.73300079 Ry

     convergence has been achieved in  21 iterations

     Forces acting on atoms (cartesian axes, Ry/au):

     atom    1 type  1   force =     0.00000000    0.00000000    0.00030789
     atom    2 type  1   force =     0.00000000    0.00000000    0.00030789
     atom    3 type  2   force =    -0.03228800    0.01062704    0.00592116
     atom    4 type  2   force =     0.00694071   -0.03327575    0.00592116
     atom    5 type  2   force =     0.02534729    0.02264871    0.00592116
     atom    6 type  2   force =    -0.00694071   -0.03327575    0.00592116
     atom    7 type  2   force =     0.03228800    0.01062704    0.00592116
     atom    8 type  2   force =    -0.02534729    0.02264871    0.00592116
     atom    9 type  3   force =     0.00000000   -0.00000000   -0.01807138
     atom   10 type  3   force =     0.00000000   -0.00000000   -0.01807138
     The non-local contrib.  to forces
     atom    1 type  1   force =     0.00000000   -0.00000000    0.01399843
     atom    2 type  1   force =     0.00000000   -0.00000000    0.01399843
     atom    3 type  2   force =     0.28837312   -0.16331439   -0.04539966
     atom    4 type  2   force =    -0.00275215    0.33139564   -0.04539966
     atom    5 type  2   force =    -0.28562097   -0.16808125   -0.04539966
     atom    6 type  2   force =     0.00275215    0.33139564   -0.04539966
     atom    7 type  2   force =    -0.28837312   -0.16331439   -0.04539966
     atom    8 type  2   force =     0.28562097   -0.16808125   -0.04539966
     atom    9 type  3   force =    -0.00000000   -0.00000000   -0.02731632
     atom   10 type  3   force =     0.00000000   -0.00000000   -0.02731632
     The ionic contribution  to forces
     atom    1 type  1   force =     0.00000000    0.00000000   -1.13963600
     atom    2 type  1   force =    -0.00000000   -0.00000000   -1.13963600
     atom    3 type  2   force =    -3.82746972    2.84247275    0.41178208
     atom    4 type  2   force =    -0.54791875   -4.73592238    0.41178208
     atom    5 type  2   force =     4.37538847    1.89344963    0.41178208
     atom    6 type  2   force =     0.54791875   -4.73592238    0.41178208
     atom    7 type  2   force =     3.82746972    2.84247275    0.41178208
     atom    8 type  2   force =    -4.37538847    1.89344963    0.41178208
     atom    9 type  3   force =     0.00000000   -0.00000000   -0.09571023
     atom   10 type  3   force =     0.00000000   -0.00000000   -0.09571023
     The local contribution  to forces
     atom    1 type  1   force =     0.00000000   -0.00000000    1.12594542
     atom    2 type  1   force =    -0.00000000    0.00000000    1.12594542
     atom    3 type  2   force =     3.50734277   -2.66975503   -0.36030609
     atom    4 type  2   force =     0.55840430    4.37232546   -0.36030609
     atom    5 type  2   force =    -4.06574707   -1.70257042   -0.36030609
     atom    6 type  2   force =    -0.55840430    4.37232545   -0.36030609
     atom    7 type  2   force =    -3.50734277   -2.66975504   -0.36030609
     atom    8 type  2   force =     4.06574707   -1.70257042   -0.36030609
     atom    9 type  3   force =    -0.00000000    0.00000000    0.10867885
     atom   10 type  3   force =    -0.00000000    0.00000000    0.10867885
     The core correction contribution to forces
     atom    1 type  1   force =     0.00000000    0.00000000    0.00000000
     atom    2 type  1   force =     0.00000000    0.00000000    0.00000000
     atom    3 type  2   force =    -0.00053456    0.00122386   -0.00015520
     atom    4 type  2   force =    -0.00079262   -0.00107488   -0.00015520
     atom    5 type  2   force =     0.00132718   -0.00014899   -0.00015520
     atom    6 type  2   force =     0.00079262   -0.00107488   -0.00015520
     atom    7 type  2   force =     0.00053456    0.00122386   -0.00015520
     atom    8 type  2   force =    -0.00132718   -0.00014899   -0.00015520
     atom    9 type  3   force =    -0.00000000    0.00000000   -0.00372382
     atom   10 type  3   force =     0.00000000   -0.00000000   -0.00372382
     The Hubbard contrib.    to forces
     atom    1 type  1   force =     0.00000000    0.00000000    0.00000000
     atom    2 type  1   force =     0.00000000    0.00000000    0.00000000
     atom    3 type  2   force =     0.00000000    0.00000000    0.00000000
     atom    4 type  2   force =     0.00000000    0.00000000    0.00000000
     atom    5 type  2   force =     0.00000000    0.00000000    0.00000000
     atom    6 type  2   force =     0.00000000    0.00000000    0.00000000
     atom    7 type  2   force =     0.00000000    0.00000000    0.00000000
     atom    8 type  2   force =     0.00000000    0.00000000    0.00000000
     atom    9 type  3   force =     0.00000000    0.00000000    0.00000000
     atom   10 type  3   force =     0.00000000    0.00000000    0.00000000
     The SCF correction term to forces
     atom    1 type  1   force =    -0.00000000   -0.00000000    0.00000001
     atom    2 type  1   force =     0.00000000   -0.00000000    0.00000001
     atom    3 type  2   force =     0.00000039   -0.00000015    0.00000001
     atom    4 type  2   force =    -0.00000007    0.00000041    0.00000001
     atom    5 type  2   force =    -0.00000032   -0.00000027    0.00000001
     atom    6 type  2   force =     0.00000007    0.00000041    0.00000001
     atom    7 type  2   force =    -0.00000039   -0.00000015    0.00000001
     atom    8 type  2   force =     0.00000032   -0.00000027    0.00000001
     atom    9 type  3   force =     0.00000000   -0.00000000    0.00000012
     atom   10 type  3   force =     0.00000000   -0.00000000    0.00000012

     Total force =     0.088297     Total SCF correction =     0.000001


     Computing stress (Cartesian axis) and pressure

          total   stress  (Ry/bohr**3)                   (kbar)     P=      156.85
   0.00111324   0.00000000  -0.00000000          163.76        0.00       -0.00
  -0.00000000   0.00111324   0.00000000           -0.00      163.76        0.00
  -0.00000000   0.00000000   0.00097220           -0.00        0.00      143.02

     kinetic stress (kbar)  28664.75     -0.00     -0.00
                                0.00  28664.75      0.00
                                0.00      0.00  28602.81

     local   stress (kbar) -13100.81     -0.00      0.00
                               -0.00 -13100.81     -0.00
                                0.00     -0.00 -11046.09

     nonloc. stress (kbar)   7420.50      0.00     -0.00
                                0.00   7420.50      0.00
                                0.00      0.00   7473.04

     hartree stress (kbar)   7634.87     -0.00     -0.00
                               -0.00   7634.87     -0.00
                               -0.00     -0.00   7165.99

     exc-cor stress (kbar)   1120.49      0.00     -0.00
                                0.00   1120.49      0.00
                               -0.00      0.00   1117.09

     corecor stress (kbar)  -7296.27      0.00      0.00
                                0.00  -7296.27     -0.00
                                0.00     -0.00  -7297.04

     ewald   stress (kbar) -24279.76      0.00     -0.00
                                0.00 -24279.76      0.00
                               -0.00      0.00 -25872.79

     hubbard stress (kbar)      0.00      0.00      0.00
                                0.00      0.00      0.00
                                0.00      0.00      0.00

     DFT-D   stress (kbar)      0.00      0.00      0.00
                                0.00      0.00      0.00
                                0.00      0.00      0.00

     XDM     stress (kbar)      0.00      0.00      0.00
                                0.00      0.00      0.00
                                0.00      0.00      0.00

     dft-nl  stress (kbar)      0.00      0.00      0.00
                                0.00      0.00      0.00
                                0.00      0.00      0.00

     TS-vdW  stress (kbar)      0.00      0.00      0.00
                                0.00      0.00      0.00
                                0.00      0.00      0.00

     MDB     stress (kbar)      0.00      0.00      0.00
                                0.00      0.00      0.00
                                0.00      0.00      0.00

     3D-RISM stress (kbar)      0.00      0.00      0.00
                                0.00      0.00      0.00
                                0.00      0.00      0.00

     Message from routine punch:
     Nothing written, as per user request (disk_io='none')
 
     init_run     :      0.53s CPU      0.77s WALL (       1 calls)
     electrons    :     14.12s CPU     14.43s WALL (       1 calls)
     forces       :      0.07s CPU      0.08s WALL (       1 calls)
     stress       :      0.15s CPU      0.16s WALL (       1 calls)

     Called by init_run:
     wfcinit      :      0.17s CPU      0.28s WALL (       1 calls)
     wfcinit:atom :      0.02s CPU      0.03s WALL (      32 calls)
     wfcinit:wfcr :      0.12s CPU      0.20s WALL (      32 calls)
     potinit      :      0.10s CPU      0.11s WALL (       1 calls)
     hinit0       :      0.20s CPU      0.24s WALL (       1 calls)

     Called by electrons:
     c_bands      :     10.71s CPU     10.95s WALL (      21 calls)
     sum_band     :      1.41s CPU      1.43s WALL (      21 calls)
     v_of_rho     :      0.09s CPU      0.10s WALL (      22 calls)
     v_h          :      0.04s CPU      0.04s WALL (      22 calls)
     v_xc         :      0.05s CPU      0.06s WALL (      24 calls)
     newd         :      0.21s CPU      0.24s WALL (      22 calls)
     PAW_pot      :      1.58s CPU      1.61s WALL (      22 calls)
     mix_rho      :      0.13s CPU      0.14s WALL (      21 calls)

     Called by c_bands:
     init_us_2    :      0.46s CPU      0.47s WALL (    1440 calls)
     cegterg      :      9.73s CPU      9.96s WALL (     672 calls)

     Called by sum_band:
     sum_band:wei :      0.00s CPU      0.00s WALL (      21 calls)
     sum_band:loo :      1.09s CPU      1.10s WALL (      21 calls)
     sum_band:buf :      0.18s CPU      0.18s WALL (     672 calls)
     sum_band:ini :      0.21s CPU      0.22s WALL (     672 calls)
     sum_band:cal :      0.01s CPU      0.01s WALL (     672 calls)
     sum_band:bec :      0.25s CPU      0.26s WALL (     672 calls)
     addusdens    :      0.22s CPU      0.22s WALL (      21 calls)
                                        0.22s GPU  (      21 calls)
     addusd:skk   :      0.00s CPU      0.01s WALL (      63 calls)
                                        0.01s GPU  (      63 calls)

     Called by *egterg:
     cdiaghg      :      4.29s CPU      4.40s WALL (    3657 calls)
                                        4.36s GPU  (    3657 calls)
     cegterg:over :      0.27s CPU      0.28s WALL (    2985 calls)
     cegterg:upda :      0.89s CPU      0.90s WALL (    2985 calls)
     cegterg:last :      0.13s CPU      0.13s WALL (    2070 calls)
     h_psi        :      2.75s CPU      2.98s WALL (    3689 calls)
     s_psi        :      0.96s CPU      0.97s WALL (    3689 calls)
     g_psi        :      0.06s CPU      0.06s WALL (    2985 calls)

     Called by h_psi:
     h_psi:calbec :      0.07s CPU      0.10s WALL (    3689 calls)
     vloc_psi     :      1.76s CPU      2.00s WALL (    3689 calls)
                                        1.96s GPU  (    3689 calls)
     add_vuspsi   :      0.81s CPU      0.82s WALL (    3689 calls)

     General routines
     calbec       :      0.08s CPU      0.11s WALL (    4905 calls)
     fft          :      0.03s CPU      0.07s WALL (     309 calls)
                                        0.04s GPU  (     287 calls)
     ffts         :      0.01s CPU      0.01s WALL (      43 calls)
                                        0.00s GPU  (      21 calls)
     fftw         :      0.13s CPU      1.24s WALL (   16702 calls)
                                        1.08s GPU  (   16702 calls)
     interpolate  :      0.06s CPU      0.07s WALL (      22 calls)
 
     Parallel routines

     PAW routines
     PAW_pot      :      1.58s CPU      1.61s WALL (      22 calls)
     PAW_symme    :      0.00s CPU      0.00s WALL (      43 calls)
 
     PWSCF        :     15.21s CPU     15.80s WALL

 
   This run was terminated on:  17: 5:52  29Nov2025            

=------------------------------------------------------------------------------=
   JOB DONE.
=------------------------------------------------------------------------------=
