
     Program PWSCF v.7.5 starts on 29Nov2025 at 17: 6: 4 

     This program is part of the open-source Quantum ESPRESSO suite
     for quantum simulation of materials; please cite
         "P. Giannozzi et al., J. Phys.:Condens. Matter 21 395502 (2009);
         "P. Giannozzi et al., J. Phys.:Condens. Matter 29 465901 (2017);
         "P. Giannozzi et al., J. Chem. Phys. 152 154105 (2020);
          URL http://www.quantum-espresso.org", 
     in publications or presentations arising from this work. More details at
     http://www.quantum-espresso.org/quote

     Parallel version (MPI & OpenMP), running on       1 processor cores
     Number of MPI processes:                 1
     Threads/MPI process:                     1

     MPI processes distributed on     1 nodes
     1888624 MiB available memory on the printing compute node when the environment starts
 
     Reading input from espresso.pwi
Warning: card &CELL ignored
Warning: card &FCP ignored
Warning: card &RISM ignored

     Current dimensions of program PWSCF are:
     Max number of different atomic species (ntypx) = 10
     Max number of k-points (npk) =  40000
     Max angular momentum in pseudopotentials (lmaxx) =  4
     file O.pbesol-n-kjpaw_psl.0.1.UPF: wavefunction(s)  2P renormalized
     file Nb.pbesol-spn-kjpaw_psl.0.3.0.UPF: wavefunction(s)  4S 4P renormalized
     Message from routine setup:
     using ibrav=0 with symmetry is DISCOURAGED, use correct ibrav instead
 
     Subspace diagonalization in iterative solution of the eigenvalue problem:
     a serial algorithm will be used

 
     G-vector sticks info
     --------------------
     sticks:   dense  smooth     PW     G-vecs:    dense   smooth      PW
     Sum        2937    1761    521               101571    47221    7457
 
     Using Slab Decomposition
 


     bravais-lattice index     =            0
     lattice parameter (alat)  =      10.5553  a.u.
     unit-cell volume          =     751.8946 (a.u.)^3
     number of atoms/cell      =           10
     number of atomic types    =            3
     number of electrons       =        68.00
     number of Kohn-Sham states=           34
     kinetic-energy cutoff     =      60.0000  Ry
     charge density cutoff     =     400.0000  Ry
     scf convergence threshold =      1.0E-12
     mixing beta               =       0.7000
     number of iterations used =            8  plain     mixing
     Exchange-correlation= SLA  PW   PSX  PSC
                           (   1   4  10   8   0   0   0)

     GPU acceleration is ACTIVE.  1 visible GPUs per MPI rank


     GPU used by master process:

        Device Number: 0
        Device name: NVIDIA B200
        Compute capability : 100
        Ratio of single to double precision performance  : 16
        Memory Clock Rate (KHz): 3996000
        Memory Bus Width (bits): 7680
        Peak Memory Bandwidth (GB/s): ******

     celldm(1)=  10.555313  celldm(2)=   0.000000  celldm(3)=   0.000000
     celldm(4)=   0.000000  celldm(5)=   0.000000  celldm(6)=   0.000000

     crystal axes: (cart. coord. in units of alat)
               a(1) = (   0.468445   0.270457   0.841078 )  
               a(2) = (  -0.468445   0.270457   0.841078 )  
               a(3) = (   0.000000  -0.540913   0.841078 )  

     reciprocal axes: (cart. coord. in units 2 pi/alat)
               b(1) = (  1.067362  0.616242  0.396317 )  
               b(2) = ( -1.067362  0.616242  0.396317 )  
               b(3) = ( -0.000000 -1.232483  0.396317 )  


     PseudoPot. # 1 for Li read from file:
     /home/qhossain/SSSP_1.3.0_PBEsol_efficiency/li_pbesol_v1.4.uspp.F.UPF
     MD5 check sum: aa28d9aeea6a965f2dc95ee9517b3536
     Pseudo is Ultrasoft, Zval =  3.0
     Generated by new atomic code, or converted to UPF format
     Using radial grid of  751 points,  5 beta functions with: 
                l(1) =   0
                l(2) =   0
                l(3) =   0
                l(4) =   1
                l(5) =   1
     Q(r) pseudized with 10 coefficients,  rinner =    1.150   1.150   1.150


     PseudoPot. # 2 for O  read from file:
     /home/qhossain/SSSP_1.3.0_PBEsol_efficiency/O.pbesol-n-kjpaw_psl.0.1.UPF
     MD5 check sum: 81d73d1479e654e5638b0319f0d6c2c7
     Pseudo is Projector augmented-wave + core cor, Zval =  6.0
     Generated using "atomic" code by A. Dal Corso  v.6.0 svn rev. 13079
     Shape of augmentation charge: BESSEL
     Using radial grid of 1095 points,  4 beta functions with: 
                l(1) =   0
                l(2) =   0
                l(3) =   1
                l(4) =   1
     Q(r) pseudized with 0 coefficients 


     PseudoPot. # 3 for Nb read from file:
     /home/qhossain/SSSP_1.3.0_PBEsol_efficiency/Nb.pbesol-spn-kjpaw_psl.0.3.0.UPF
     MD5 check sum: 3501bca1474143575298708b2d32ca28
     Pseudo is Projector augmented-wave + core cor, Zval = 13.0
     Generated using "atomic" code by A. Dal Corso  v.6.0 svn rev. 13079
     Shape of augmentation charge: PSQ
     Using radial grid of 1227 points,  6 beta functions with: 
                l(1) =   0
                l(2) =   0
                l(3) =   1
                l(4) =   1
                l(5) =   2
                l(6) =   2
     Q(r) pseudized with 0 coefficients 


     atomic species   valence    mass     pseudopotential
     Li                3.00     6.94000     Li( 1.00)
     O                 6.00    15.99900     O ( 1.00)
     Nb               13.00    92.90637     Nb( 1.00)

      6 Sym. Ops. (no inversion) found ( 3 have fractional translation)


                                    s                        frac. trans.

      isym =  1     identity                                     

 cryst.   s( 1) = (     1          0          0      )
                  (     0          1          0      )
                  (     0          0          1      )

 cart.    s( 1) = (  1.0000000  0.0000000 -0.0000000 )
                  ( -0.0000000  1.0000000  0.0000000 )
                  ( -0.0000000  0.0000000  1.0000000 )


      isym =  2     120 deg rotation - cryst. axis [0,0,1]       

 cryst.   s( 2) = (     0          1          0      )
                  (     0          0          1      )
                  (     1          0          0      )

 cart.    s( 2) = ( -0.5000000 -0.8660254 -0.0000000 )
                  (  0.8660254 -0.5000000 -0.0000000 )
                  ( -0.0000000 -0.0000000  1.0000000 )


      isym =  3     120 deg rotation - cryst. axis [0,0,-1]      

 cryst.   s( 3) = (     0          0          1      )
                  (     1          0          0      )
                  (     0          1          0      )

 cart.    s( 3) = ( -0.5000000  0.8660254  0.0000000 )
                  ( -0.8660254 -0.5000000 -0.0000000 )
                  (  0.0000000 -0.0000000  1.0000000 )


      isym =  4     inv. 180 deg rotation - cart. axis [1,0,0]   

 cryst.   s( 4) = (     0          1          0      )    f =( -0.5000000 )
                  (     1          0          0      )       ( -0.5000000 )
                  (     0          0          1      )       ( -0.5000000 )

 cart.    s( 4) = ( -1.0000000  0.0000000 -0.0000000 )    f =( -0.0000000 )
                  (  0.0000000  1.0000000  0.0000000 )       (  0.0000000 )
                  (  0.0000000  0.0000000  1.0000000 )       ( -1.2616176 )


      isym =  5     inv. 180 deg rotation - cryst. axis [0,1,0]  

 cryst.   s( 5) = (     1          0          0      )    f =( -0.5000000 )
                  (     0          0          1      )       ( -0.5000000 )
                  (     0          1          0      )       ( -0.5000000 )

 cart.    s( 5) = (  0.5000000  0.8660254  0.0000000 )    f =(  0.0000000 )
                  (  0.8660254 -0.5000000 -0.0000000 )       ( -0.0000000 )
                  ( -0.0000000 -0.0000000  1.0000000 )       ( -1.2616176 )


      isym =  6     inv. 180 deg rotation - cryst. axis [1,1,0]  

 cryst.   s( 6) = (     0          0          1      )    f =( -0.5000000 )
                  (     0          1          0      )       ( -0.5000000 )
                  (     1          0          0      )       ( -0.5000000 )

 cart.    s( 6) = (  0.5000000 -0.8660254 -0.0000000 )    f =( -0.0000000 )
                  ( -0.8660254 -0.5000000 -0.0000000 )       ( -0.0000000 )
                  (  0.0000000 -0.0000000  1.0000000 )       ( -1.2616176 )


   Cartesian axes

     site n.     atom                  positions (alat units)
         1        Li     tau(   1) = (  -0.0000000  -0.0000000   1.9767754  )
         2        Li     tau(   2) = (  -0.0000000  -0.0000000   0.7151579  )
         3        O      tau(   3) = (  -0.3002641  -0.0382953   1.4284135  )
         4        O      tau(   4) = (   0.1832967  -0.2408887   1.4284135  )
         5        O      tau(   5) = (   0.1169674   0.2791840   1.4284135  )
         6        O      tau(   6) = (   0.2851479   0.0295679   1.0078744  )
         7        O      tau(   7) = (  -0.1681805   0.2321613   1.0078744  )
         8        O      tau(   8) = (  -0.1169674  -0.2617293   1.0078744  )
         9        Nb     tau(   9) = (   0.0000000  -0.0000000   1.2643329  )
        10        Nb     tau(  10) = (  -0.0000000  -0.0000000   0.0027153  )

   Crystallographic axes

     site n.     atom                  positions (cryst. coord.)
         1        Li     tau(   1) = (  0.7834289  0.7834289  0.7834289  )
         2        Li     tau(   2) = (  0.2834289  0.2834289  0.2834289  )
         3        O      tau(   3) = (  0.2220144  0.8629954  0.6133023  )
         4        O      tau(   4) = (  0.6133023  0.2220144  0.8629954  )
         5        O      tau(   5) = (  0.8629954  0.6133023  0.2220144  )
         6        O      tau(   6) = (  0.7220144  0.1133023  0.3629954  )
         7        O      tau(   7) = (  0.3629954  0.7220144  0.1133023  )
         8        O      tau(   8) = (  0.1133023  0.3629954  0.7220144  )
         9        Nb     tau(   9) = (  0.5010761  0.5010761  0.5010761  )
        10        Nb     tau(  10) = (  0.0010761  0.0010761  0.0010761  )

     number of k points=    32
                       cart. coord. in units 2pi/alat
        k(    1) = (   0.0000000   0.0000000   0.0000000), wk =   0.0092593
        k(    2) = (  -0.0000000  -0.2054139   0.0660528), wk =   0.0555556
        k(    3) = (  -0.0000000  -0.4108278   0.1321055), wk =   0.0555556
        k(    4) = (   0.0000000   0.6162417  -0.1981583), wk =   0.0277778
        k(    5) = (  -0.1778937  -0.1027070   0.1321055), wk =   0.0555556
        k(    6) = (  -0.1778937  -0.3081209   0.1981583), wk =   0.1111111
        k(    7) = (  -0.1778937   0.7189487  -0.1321055), wk =   0.1111111
        k(    8) = (  -0.1778937   0.5135348  -0.0660528), wk =   0.1111111
        k(    9) = (  -0.1778937   0.3081209   0.0000000), wk =   0.0555556
        k(   10) = (  -0.3557873  -0.2054139   0.2642111), wk =   0.0555556
        k(   11) = (  -0.3557873   0.8216556  -0.0660528), wk =   0.1111111
        k(   12) = (  -0.3557873   0.6162417   0.0000000), wk =   0.0555556
        k(   13) = (   0.5336810   0.3081209  -0.3963166), wk =   0.0277778
        k(   14) = (   0.0000000  -0.0000000   0.1981583), wk =   0.0185185
        k(   15) = (   0.0000000  -0.2054139   0.2642111), wk =   0.0555556
        k(   16) = (   0.0000000   0.8216556  -0.0660528), wk =   0.0555556
        k(   17) = (   0.0000000   0.6162417   0.0000000), wk =   0.0555556
        k(   18) = (   0.0000000   0.4108278   0.0660528), wk =   0.0555556
        k(   19) = (  -0.1778937  -0.1027070   0.3302638), wk =   0.0555556
        k(   20) = (  -0.1778937   0.9243626   0.0000000), wk =   0.1111111
        k(   21) = (  -0.1778937   0.7189487   0.0660528), wk =   0.1111111
        k(   22) = (  -0.1778937   0.5135348   0.1321055), wk =   0.1111111
        k(   23) = (   0.7115747   0.4108278  -0.3302638), wk =   0.0555556
        k(   24) = (   0.7115747   0.2054139  -0.2642111), wk =   0.1111111
        k(   25) = (   0.7115747  -0.0000000  -0.1981583), wk =   0.0555556
        k(   26) = (   0.5336810   0.3081209  -0.1981583), wk =   0.0555556
        k(   27) = (   0.0000000  -0.0000000   0.3963166), wk =   0.0185185
        k(   28) = (   0.0000000   1.0270696   0.0660528), wk =   0.0555556
        k(   29) = (   0.0000000   0.8216556   0.1321055), wk =   0.0555556
        k(   30) = (   0.8894683   0.5135348  -0.2642111), wk =   0.0555556
        k(   31) = (   0.8894683   0.3081209  -0.1981583), wk =   0.0555556
        k(   32) = (   0.0000000   0.0000000  -0.5944749), wk =   0.0092593

                       cryst. coord.
        k(    1) = (   0.0000000   0.0000000   0.0000000), wk =   0.0092593
        k(    2) = (   0.0000000   0.0000000   0.1666667), wk =   0.0555556
        k(    3) = (   0.0000000   0.0000000   0.3333333), wk =   0.0555556
        k(    4) = (  -0.0000000  -0.0000000  -0.5000000), wk =   0.0277778
        k(    5) = (   0.0000000   0.1666667   0.1666667), wk =   0.0555556
        k(    6) = (  -0.0000000   0.1666667   0.3333333), wk =   0.1111111
        k(    7) = (  -0.0000000   0.1666667  -0.5000000), wk =   0.1111111
        k(    8) = (  -0.0000000   0.1666667  -0.3333333), wk =   0.1111111
        k(    9) = (  -0.0000000   0.1666667  -0.1666667), wk =   0.0555556
        k(   10) = (   0.0000000   0.3333333   0.3333333), wk =   0.0555556
        k(   11) = (  -0.0000000   0.3333333  -0.5000000), wk =   0.1111111
        k(   12) = (  -0.0000000   0.3333333  -0.3333333), wk =   0.0555556
        k(   13) = (  -0.0000000  -0.5000000  -0.5000000), wk =   0.0277778
        k(   14) = (   0.1666667   0.1666667   0.1666667), wk =   0.0185185
        k(   15) = (   0.1666667   0.1666667   0.3333333), wk =   0.0555556
        k(   16) = (   0.1666667   0.1666667  -0.5000000), wk =   0.0555556
        k(   17) = (   0.1666667   0.1666667  -0.3333333), wk =   0.0555556
        k(   18) = (   0.1666667   0.1666667  -0.1666667), wk =   0.0555556
        k(   19) = (   0.1666667   0.3333333   0.3333333), wk =   0.0555556
        k(   20) = (   0.1666667   0.3333333  -0.5000000), wk =   0.1111111
        k(   21) = (   0.1666667   0.3333333  -0.3333333), wk =   0.1111111
        k(   22) = (   0.1666667   0.3333333  -0.1666667), wk =   0.1111111
        k(   23) = (   0.1666667  -0.5000000  -0.5000000), wk =   0.0555556
        k(   24) = (   0.1666667  -0.5000000  -0.3333333), wk =   0.1111111
        k(   25) = (   0.1666667  -0.5000000  -0.1666667), wk =   0.0555556
        k(   26) = (   0.1666667  -0.3333333  -0.3333333), wk =   0.0555556
        k(   27) = (   0.3333333   0.3333333   0.3333333), wk =   0.0185185
        k(   28) = (   0.3333333   0.3333333  -0.5000000), wk =   0.0555556
        k(   29) = (   0.3333333   0.3333333  -0.3333333), wk =   0.0555556
        k(   30) = (   0.3333333  -0.5000000  -0.5000000), wk =   0.0555556
        k(   31) = (   0.3333333  -0.5000000  -0.3333333), wk =   0.0555556
        k(   32) = (  -0.5000000  -0.5000000  -0.5000000), wk =   0.0092593

     Dense  grid:   101571 G-vectors     FFT dimensions: (  72,  72,  72)

     Smooth grid:    47221 G-vectors     FFT dimensions: (  54,  54,  54)

     Dynamical RAM for                 wfc:       3.06 MB

     Dynamical RAM for     wfc (w. buffer):     101.03 MB

     Dynamical RAM for           str. fact:       4.65 MB

     Dynamical RAM for           local pot:       0.00 MB

     Dynamical RAM for          nlocal pot:       9.18 MB

     Dynamical RAM for                qrad:       4.82 MB

     Dynamical RAM for          rho,v,vnew:      13.19 MB

     Dynamical RAM for               rhoin:       4.40 MB

     Dynamical RAM for            rho*nmix:      24.80 MB

     Dynamical RAM for           G-vectors:       6.17 MB

     Dynamical RAM for          h,s,v(r/c):       0.21 MB

     Dynamical RAM for          <psi|beta>:       0.05 MB

     Dynamical RAM for                 psi:       6.12 MB

     Dynamical RAM for                hpsi:       6.12 MB

     Dynamical RAM for                spsi:       6.12 MB

     Dynamical RAM for      wfcinit/wfcrot:       6.15 MB

     Dynamical RAM for           addusdens:     297.57 MB

     Dynamical RAM for          addusforce:     313.87 MB

     Dynamical RAM for         addusstress:     311.52 MB

     Estimated static dynamical RAM per process >     163.88 MB

     Estimated max dynamical RAM per process >     502.54 MB

     Check: negative core charge=   -0.000005

     Initial potential from superposition of free atoms

     starting charge      67.0945, renormalised to      68.0000
     Starting wfcs are   54 randomized atomic wfcs
     Checking if some PAW data can be deallocated... 

     total cpu time spent up to now is        1.3 secs

     per-process dynamical memory:   566.2 Mb

     Self-consistent Calculation
[tb_dev] Currently allocated     1.86E+00 Mbytes, locked:    0 /   3
[tb_pin] Currently allocated     0.00E+00 Mbytes, locked:    0 /   0

     iteration #  1     ecut=    60.00 Ry     beta= 0.70
     Davidson diagonalization with overlap

---- Real-time Memory Report at c_bands before calling an iterative solver
           994 MiB given to the printing process from OS
           552 MiB allocation reported by mallinfo(arena+hblkhd)
       1887764 MiB available memory on the node where the printing process lives
     GPU memory used/free/total (MiB): 2297 / 180344 / 182642
------------------
     ethr =  1.00E-02,  avg # of iterations =  1.1

     total cpu time spent up to now is        1.8 secs

     total energy              =    -934.33656189 Ry
     estimated scf accuracy    <       4.61111406 Ry
[tb_dev] Currently allocated     0.00E+00 Mbytes, locked:    0 /   0
[tb_pin] Currently allocated     0.00E+00 Mbytes, locked:    0 /   0

     iteration #  2     ecut=    60.00 Ry     beta= 0.70
     Davidson diagonalization with overlap

---- Real-time Memory Report at c_bands before calling an iterative solver
          1043 MiB given to the printing process from OS
           630 MiB allocation reported by mallinfo(arena+hblkhd)
       1887715 MiB available memory on the node where the printing process lives
     GPU memory used/free/total (MiB): 2297 / 180344 / 182642
------------------
     ethr =  6.78E-03,  avg # of iterations =  8.7

     total cpu time spent up to now is        2.9 secs

     total energy              =    -933.21474494 Ry
     estimated scf accuracy    <      19.60467184 Ry
[tb_dev] Currently allocated     0.00E+00 Mbytes, locked:    0 /   0
[tb_pin] Currently allocated     0.00E+00 Mbytes, locked:    0 /   0

     iteration #  3     ecut=    60.00 Ry     beta= 0.70
     Davidson diagonalization with overlap

---- Real-time Memory Report at c_bands before calling an iterative solver
          1049 MiB given to the printing process from OS
           635 MiB allocation reported by mallinfo(arena+hblkhd)
       1887708 MiB available memory on the node where the printing process lives
     GPU memory used/free/total (MiB): 2299 / 180342 / 182642
------------------
     ethr =  6.78E-03,  avg # of iterations =  6.5

     total cpu time spent up to now is        3.8 secs

     total energy              =    -936.78743981 Ry
     estimated scf accuracy    <       0.11532164 Ry
[tb_dev] Currently allocated     0.00E+00 Mbytes, locked:    0 /   0
[tb_pin] Currently allocated     0.00E+00 Mbytes, locked:    0 /   0

     iteration #  4     ecut=    60.00 Ry     beta= 0.70
     Davidson diagonalization with overlap

---- Real-time Memory Report at c_bands before calling an iterative solver
          1049 MiB given to the printing process from OS
           636 MiB allocation reported by mallinfo(arena+hblkhd)
       1887705 MiB available memory on the node where the printing process lives
     GPU memory used/free/total (MiB): 2299 / 180342 / 182642
------------------
     ethr =  1.70E-04,  avg # of iterations =  5.6

     total cpu time spent up to now is        4.6 secs

     total energy              =    -936.69675840 Ry
     estimated scf accuracy    <       0.29645503 Ry
[tb_dev] Currently allocated     0.00E+00 Mbytes, locked:    0 /   0
[tb_pin] Currently allocated     0.00E+00 Mbytes, locked:    0 /   0

     iteration #  5     ecut=    60.00 Ry     beta= 0.70
     Davidson diagonalization with overlap

---- Real-time Memory Report at c_bands before calling an iterative solver
          1054 MiB given to the printing process from OS
           638 MiB allocation reported by mallinfo(arena+hblkhd)
       1887690 MiB available memory on the node where the printing process lives
     GPU memory used/free/total (MiB): 2299 / 180342 / 182642
------------------
     ethr =  1.70E-04,  avg # of iterations =  7.3

     total cpu time spent up to now is        5.6 secs

     total energy              =    -936.82087352 Ry
     estimated scf accuracy    <       0.32975727 Ry
[tb_dev] Currently allocated     0.00E+00 Mbytes, locked:    0 /   0
[tb_pin] Currently allocated     0.00E+00 Mbytes, locked:    0 /   0

     iteration #  6     ecut=    60.00 Ry     beta= 0.70
     Davidson diagonalization with overlap

---- Real-time Memory Report at c_bands before calling an iterative solver
          1058 MiB given to the printing process from OS
           627 MiB allocation reported by mallinfo(arena+hblkhd)
       1887684 MiB available memory on the node where the printing process lives
     GPU memory used/free/total (MiB): 2299 / 180342 / 182642
------------------
     ethr =  1.70E-04,  avg # of iterations =  2.7

     total cpu time spent up to now is        6.1 secs

     total energy              =    -936.77060782 Ry
     estimated scf accuracy    <       0.13170992 Ry
[tb_dev] Currently allocated     0.00E+00 Mbytes, locked:    0 /   0
[tb_pin] Currently allocated     0.00E+00 Mbytes, locked:    0 /   0

     iteration #  7     ecut=    60.00 Ry     beta= 0.70
     Davidson diagonalization with overlap

---- Real-time Memory Report at c_bands before calling an iterative solver
          1058 MiB given to the printing process from OS
           641 MiB allocation reported by mallinfo(arena+hblkhd)
       1887676 MiB available memory on the node where the printing process lives
     GPU memory used/free/total (MiB): 2299 / 180342 / 182642
------------------
     ethr =  1.70E-04,  avg # of iterations =  5.5

     total cpu time spent up to now is        6.9 secs

     total energy              =    -936.82632854 Ry
     estimated scf accuracy    <       0.02333693 Ry
[tb_dev] Currently allocated     0.00E+00 Mbytes, locked:    0 /   0
[tb_pin] Currently allocated     0.00E+00 Mbytes, locked:    0 /   0

     iteration #  8     ecut=    60.00 Ry     beta= 0.70
     Davidson diagonalization with overlap

---- Real-time Memory Report at c_bands before calling an iterative solver
          1061 MiB given to the printing process from OS
           642 MiB allocation reported by mallinfo(arena+hblkhd)
       1887682 MiB available memory on the node where the printing process lives
     GPU memory used/free/total (MiB): 2299 / 180342 / 182642
------------------
     ethr =  3.43E-05,  avg # of iterations =  2.3

     total cpu time spent up to now is        7.4 secs

     total energy              =    -936.82339846 Ry
     estimated scf accuracy    <       0.01761121 Ry
[tb_dev] Currently allocated     0.00E+00 Mbytes, locked:    0 /   0
[tb_pin] Currently allocated     0.00E+00 Mbytes, locked:    0 /   0

     iteration #  9     ecut=    60.00 Ry     beta= 0.70
     Davidson diagonalization with overlap

---- Real-time Memory Report at c_bands before calling an iterative solver
          1063 MiB given to the printing process from OS
           644 MiB allocation reported by mallinfo(arena+hblkhd)
       1887678 MiB available memory on the node where the printing process lives
     GPU memory used/free/total (MiB): 2299 / 180342 / 182642
------------------
     ethr =  2.59E-05,  avg # of iterations =  2.3

     total cpu time spent up to now is        7.9 secs

     total energy              =    -936.82221702 Ry
     estimated scf accuracy    <       0.00611650 Ry
[tb_dev] Currently allocated     0.00E+00 Mbytes, locked:    0 /   0
[tb_pin] Currently allocated     0.00E+00 Mbytes, locked:    0 /   0

     iteration # 10     ecut=    60.00 Ry     beta= 0.70
     Davidson diagonalization with overlap

---- Real-time Memory Report at c_bands before calling an iterative solver
          1064 MiB given to the printing process from OS
           645 MiB allocation reported by mallinfo(arena+hblkhd)
       1887671 MiB available memory on the node where the printing process lives
     GPU memory used/free/total (MiB): 2299 / 180342 / 182642
------------------
     ethr =  8.99E-06,  avg # of iterations =  5.0

     total cpu time spent up to now is        8.7 secs

     total energy              =    -936.82434309 Ry
     estimated scf accuracy    <       0.00006279 Ry
[tb_dev] Currently allocated     0.00E+00 Mbytes, locked:    0 /   0
[tb_pin] Currently allocated     0.00E+00 Mbytes, locked:    0 /   0

     iteration # 11     ecut=    60.00 Ry     beta= 0.70
     Davidson diagonalization with overlap

---- Real-time Memory Report at c_bands before calling an iterative solver
          1064 MiB given to the printing process from OS
           645 MiB allocation reported by mallinfo(arena+hblkhd)
       1887668 MiB available memory on the node where the printing process lives
     GPU memory used/free/total (MiB): 2299 / 180342 / 182642
------------------
     ethr =  9.23E-08,  avg # of iterations =  7.6

     total cpu time spent up to now is        9.6 secs

     total energy              =    -936.82447990 Ry
     estimated scf accuracy    <       0.00000238 Ry
[tb_dev] Currently allocated     0.00E+00 Mbytes, locked:    0 /   0
[tb_pin] Currently allocated     0.00E+00 Mbytes, locked:    0 /   0

     iteration # 12     ecut=    60.00 Ry     beta= 0.70
     Davidson diagonalization with overlap

---- Real-time Memory Report at c_bands before calling an iterative solver
          1065 MiB given to the printing process from OS
           645 MiB allocation reported by mallinfo(arena+hblkhd)
       1887697 MiB available memory on the node where the printing process lives
     GPU memory used/free/total (MiB): 2299 / 180342 / 182642
------------------
     ethr =  3.51E-09,  avg # of iterations = 13.8

     total cpu time spent up to now is       11.1 secs

     total energy              =    -936.82447549 Ry
     estimated scf accuracy    <       0.00066767 Ry
[tb_dev] Currently allocated     0.00E+00 Mbytes, locked:    0 /   0
[tb_pin] Currently allocated     0.00E+00 Mbytes, locked:    0 /   0

     iteration # 13     ecut=    60.00 Ry     beta= 0.70
     Davidson diagonalization with overlap

---- Real-time Memory Report at c_bands before calling an iterative solver
          1065 MiB given to the printing process from OS
           645 MiB allocation reported by mallinfo(arena+hblkhd)
       1887688 MiB available memory on the node where the printing process lives
     GPU memory used/free/total (MiB): 2299 / 180342 / 182642
------------------
     ethr =  3.51E-09,  avg # of iterations =  8.9

     total cpu time spent up to now is       12.2 secs

     total energy              =    -936.82442411 Ry
     estimated scf accuracy    <       0.00026710 Ry
[tb_dev] Currently allocated     0.00E+00 Mbytes, locked:    0 /   0
[tb_pin] Currently allocated     0.00E+00 Mbytes, locked:    0 /   0

     iteration # 14     ecut=    60.00 Ry     beta= 0.70
     Davidson diagonalization with overlap

---- Real-time Memory Report at c_bands before calling an iterative solver
          1065 MiB given to the printing process from OS
           645 MiB allocation reported by mallinfo(arena+hblkhd)
       1887684 MiB available memory on the node where the printing process lives
     GPU memory used/free/total (MiB): 2299 / 180342 / 182642
------------------
     ethr =  3.51E-09,  avg # of iterations =  9.2

     total cpu time spent up to now is       13.3 secs

     total energy              =    -936.82443629 Ry
     estimated scf accuracy    <       0.00003396 Ry
[tb_dev] Currently allocated     0.00E+00 Mbytes, locked:    0 /   0
[tb_pin] Currently allocated     0.00E+00 Mbytes, locked:    0 /   0

     iteration # 15     ecut=    60.00 Ry     beta= 0.70
     Davidson diagonalization with overlap

---- Real-time Memory Report at c_bands before calling an iterative solver
          1065 MiB given to the printing process from OS
           645 MiB allocation reported by mallinfo(arena+hblkhd)
       1887679 MiB available memory on the node where the printing process lives
     GPU memory used/free/total (MiB): 2299 / 180342 / 182642
------------------
     ethr =  3.51E-09,  avg # of iterations =  6.1

     total cpu time spent up to now is       14.1 secs

     total energy              =    -936.82443421 Ry
     estimated scf accuracy    <       0.00000964 Ry
[tb_dev] Currently allocated     0.00E+00 Mbytes, locked:    0 /   0
[tb_pin] Currently allocated     0.00E+00 Mbytes, locked:    0 /   0

     iteration # 16     ecut=    60.00 Ry     beta= 0.70
     Davidson diagonalization with overlap

---- Real-time Memory Report at c_bands before calling an iterative solver
          1065 MiB given to the printing process from OS
           645 MiB allocation reported by mallinfo(arena+hblkhd)
       1887675 MiB available memory on the node where the printing process lives
     GPU memory used/free/total (MiB): 2299 / 180342 / 182642
------------------
     ethr =  3.51E-09,  avg # of iterations =  6.0

     total cpu time spent up to now is       14.9 secs

     total energy              =    -936.82443655 Ry
     estimated scf accuracy    <       0.00000002 Ry
[tb_dev] Currently allocated     0.00E+00 Mbytes, locked:    0 /   0
[tb_pin] Currently allocated     0.00E+00 Mbytes, locked:    0 /   0

     iteration # 17     ecut=    60.00 Ry     beta= 0.70
     Davidson diagonalization with overlap

---- Real-time Memory Report at c_bands before calling an iterative solver
          1065 MiB given to the printing process from OS
           645 MiB allocation reported by mallinfo(arena+hblkhd)
       1887675 MiB available memory on the node where the printing process lives
     GPU memory used/free/total (MiB): 2299 / 180342 / 182642
------------------
     ethr =  3.00E-11,  avg # of iterations = 10.8

     total cpu time spent up to now is       16.2 secs

     total energy              =    -936.82443663 Ry
     estimated scf accuracy    <       0.00000039 Ry
[tb_dev] Currently allocated     0.00E+00 Mbytes, locked:    0 /   0
[tb_pin] Currently allocated     0.00E+00 Mbytes, locked:    0 /   0

     iteration # 18     ecut=    60.00 Ry     beta= 0.70
     Davidson diagonalization with overlap

---- Real-time Memory Report at c_bands before calling an iterative solver
          1065 MiB given to the printing process from OS
           645 MiB allocation reported by mallinfo(arena+hblkhd)
       1887668 MiB available memory on the node where the printing process lives
     GPU memory used/free/total (MiB): 2299 / 180342 / 182642
------------------
     ethr =  3.00E-11,  avg # of iterations =  1.7

     total cpu time spent up to now is       16.6 secs

     total energy              =    -936.82443659 Ry
     estimated scf accuracy    <       0.00000032 Ry
[tb_dev] Currently allocated     0.00E+00 Mbytes, locked:    0 /   0
[tb_pin] Currently allocated     0.00E+00 Mbytes, locked:    0 /   0

     iteration # 19     ecut=    60.00 Ry     beta= 0.70
     Davidson diagonalization with overlap

---- Real-time Memory Report at c_bands before calling an iterative solver
          1066 MiB given to the printing process from OS
           645 MiB allocation reported by mallinfo(arena+hblkhd)
       1887659 MiB available memory on the node where the printing process lives
     GPU memory used/free/total (MiB): 2299 / 180342 / 182642
------------------
     ethr =  3.00E-11,  avg # of iterations =  4.5

     total cpu time spent up to now is       17.3 secs

     total energy              =    -936.82443654 Ry
     estimated scf accuracy    <       0.00000015 Ry
[tb_dev] Currently allocated     0.00E+00 Mbytes, locked:    0 /   0
[tb_pin] Currently allocated     0.00E+00 Mbytes, locked:    0 /   0

     iteration # 20     ecut=    60.00 Ry     beta= 0.70
     Davidson diagonalization with overlap

---- Real-time Memory Report at c_bands before calling an iterative solver
          1067 MiB given to the printing process from OS
           645 MiB allocation reported by mallinfo(arena+hblkhd)
       1887661 MiB available memory on the node where the printing process lives
     GPU memory used/free/total (MiB): 2299 / 180342 / 182642
------------------
     ethr =  3.00E-11,  avg # of iterations =  7.0

     total cpu time spent up to now is       18.2 secs

     total energy              =    -936.82443657 Ry
     estimated scf accuracy    <          1.0E-09 Ry
[tb_dev] Currently allocated     0.00E+00 Mbytes, locked:    0 /   0
[tb_pin] Currently allocated     0.00E+00 Mbytes, locked:    0 /   0

     iteration # 21     ecut=    60.00 Ry     beta= 0.70
     Davidson diagonalization with overlap

---- Real-time Memory Report at c_bands before calling an iterative solver
          1067 MiB given to the printing process from OS
           645 MiB allocation reported by mallinfo(arena+hblkhd)
       1887659 MiB available memory on the node where the printing process lives
     GPU memory used/free/total (MiB): 2299 / 180342 / 182642
------------------
     ethr =  1.50E-12,  avg # of iterations =  6.0

     total cpu time spent up to now is       19.0 secs

     total energy              =    -936.82443657 Ry
     estimated scf accuracy    <          1.3E-09 Ry
[tb_dev] Currently allocated     0.00E+00 Mbytes, locked:    0 /   0
[tb_pin] Currently allocated     0.00E+00 Mbytes, locked:    0 /   0

     iteration # 22     ecut=    60.00 Ry     beta= 0.70
     Davidson diagonalization with overlap

---- Real-time Memory Report at c_bands before calling an iterative solver
          1067 MiB given to the printing process from OS
           645 MiB allocation reported by mallinfo(arena+hblkhd)
       1887656 MiB available memory on the node where the printing process lives
     GPU memory used/free/total (MiB): 2299 / 180342 / 182642
------------------
     ethr =  1.50E-12,  avg # of iterations =  2.0

     total cpu time spent up to now is       19.4 secs

     total energy              =    -936.82443657 Ry
     estimated scf accuracy    <          5.6E-10 Ry
[tb_dev] Currently allocated     0.00E+00 Mbytes, locked:    0 /   0
[tb_pin] Currently allocated     0.00E+00 Mbytes, locked:    0 /   0

     iteration # 23     ecut=    60.00 Ry     beta= 0.70
     Davidson diagonalization with overlap

---- Real-time Memory Report at c_bands before calling an iterative solver
          1067 MiB given to the printing process from OS
           645 MiB allocation reported by mallinfo(arena+hblkhd)
       1887653 MiB available memory on the node where the printing process lives
     GPU memory used/free/total (MiB): 2299 / 180342 / 182642
------------------
     ethr =  8.24E-13,  avg # of iterations =  3.1

     total cpu time spent up to now is       20.0 secs

     total energy              =    -936.82443657 Ry
     estimated scf accuracy    <          2.3E-10 Ry
[tb_dev] Currently allocated     0.00E+00 Mbytes, locked:    0 /   0
[tb_pin] Currently allocated     0.00E+00 Mbytes, locked:    0 /   0

     iteration # 24     ecut=    60.00 Ry     beta= 0.70
     Davidson diagonalization with overlap

---- Real-time Memory Report at c_bands before calling an iterative solver
          1067 MiB given to the printing process from OS
           645 MiB allocation reported by mallinfo(arena+hblkhd)
       1887643 MiB available memory on the node where the printing process lives
     GPU memory used/free/total (MiB): 2299 / 180342 / 182642
------------------
     ethr =  3.42E-13,  avg # of iterations =  6.1

     total cpu time spent up to now is       20.8 secs

     total energy              =    -936.82443657 Ry
     estimated scf accuracy    <          3.2E-10 Ry
[tb_dev] Currently allocated     0.00E+00 Mbytes, locked:    0 /   0
[tb_pin] Currently allocated     0.00E+00 Mbytes, locked:    0 /   0

     iteration # 25     ecut=    60.00 Ry     beta= 0.70
     Davidson diagonalization with overlap

---- Real-time Memory Report at c_bands before calling an iterative solver
          1067 MiB given to the printing process from OS
           645 MiB allocation reported by mallinfo(arena+hblkhd)
       1887641 MiB available memory on the node where the printing process lives
     GPU memory used/free/total (MiB): 2299 / 180342 / 182642
------------------
     ethr =  3.42E-13,  avg # of iterations =  1.0

     total cpu time spent up to now is       21.2 secs

     total energy              =    -936.82443657 Ry
     estimated scf accuracy    <          1.9E-10 Ry
[tb_dev] Currently allocated     0.00E+00 Mbytes, locked:    0 /   0
[tb_pin] Currently allocated     0.00E+00 Mbytes, locked:    0 /   0

     iteration # 26     ecut=    60.00 Ry     beta= 0.70
     Davidson diagonalization with overlap

---- Real-time Memory Report at c_bands before calling an iterative solver
          1067 MiB given to the printing process from OS
           645 MiB allocation reported by mallinfo(arena+hblkhd)
       1887637 MiB available memory on the node where the printing process lives
     GPU memory used/free/total (MiB): 2299 / 180342 / 182642
------------------
     ethr =  2.75E-13,  avg # of iterations =  1.0

     total cpu time spent up to now is       21.6 secs

     total energy              =    -936.82443657 Ry
     estimated scf accuracy    <          1.2E-10 Ry
[tb_dev] Currently allocated     0.00E+00 Mbytes, locked:    0 /   0
[tb_pin] Currently allocated     0.00E+00 Mbytes, locked:    0 /   0

     iteration # 27     ecut=    60.00 Ry     beta= 0.70
     Davidson diagonalization with overlap

---- Real-time Memory Report at c_bands before calling an iterative solver
          1067 MiB given to the printing process from OS
           645 MiB allocation reported by mallinfo(arena+hblkhd)
       1887636 MiB available memory on the node where the printing process lives
     GPU memory used/free/total (MiB): 2299 / 180342 / 182642
------------------
     ethr =  1.72E-13,  avg # of iterations =  5.0

     total cpu time spent up to now is       22.2 secs

     total energy              =    -936.82443657 Ry
     estimated scf accuracy    <          5.1E-12 Ry
[tb_dev] Currently allocated     0.00E+00 Mbytes, locked:    0 /   0
[tb_pin] Currently allocated     0.00E+00 Mbytes, locked:    0 /   0

     iteration # 28     ecut=    60.00 Ry     beta= 0.70
     Davidson diagonalization with overlap

---- Real-time Memory Report at c_bands before calling an iterative solver
          1067 MiB given to the printing process from OS
           645 MiB allocation reported by mallinfo(arena+hblkhd)
       1887622 MiB available memory on the node where the printing process lives
     GPU memory used/free/total (MiB): 2299 / 180342 / 182642
------------------
     ethr =  1.00E-13,  avg # of iterations =  4.6

     total cpu time spent up to now is       22.9 secs

     End of self-consistent calculation

          k = 0.0000 0.0000 0.0000 (  5871 PWs)   bands (ev):

   -47.7134 -47.7016 -35.3684 -35.3661 -23.9693 -23.9693 -23.9125 -23.8392
   -23.8392 -23.7596 -10.1605  -9.5077  -9.5077  -8.7078  -8.5308  -8.5308
     2.2768   2.2768   2.4823   2.5977   2.5977   3.3228   4.5170   4.5196
     4.5196   5.3984   5.7995   5.7995   5.9718   5.9804   5.9804   6.1008
     6.5979   6.5979

     occupation numbers 
     1.0000   1.0000   1.0000   1.0000   1.0000   1.0000   1.0000   1.0000
     1.0000   1.0000   1.0000   1.0000   1.0000   1.0000   1.0000   1.0000
     1.0000   1.0000   1.0000   1.0000   1.0000   1.0000   1.0000   1.0000
     1.0000   1.0000   1.0000   1.0000   1.0000   1.0000   1.0000   1.0000
     1.0000   1.0000

          k =-0.0000-0.2054 0.0661 (  5867 PWs)   bands (ev):

   -47.7126 -47.7024 -35.3683 -35.3663 -23.9620 -23.9609 -23.9020 -23.8491
   -23.8483 -23.7697 -10.0612  -9.4555  -9.4522  -8.7766  -8.6265  -8.6070
     2.2451   2.3364   2.6686   2.7633   2.8235   3.3918   4.2147   4.3011
     4.3623   5.3607   5.5355   5.8077   5.8180   6.0887   6.1457   6.2050
     6.4682   6.5167

     occupation numbers 
     1.0000   1.0000   1.0000   1.0000   1.0000   1.0000   1.0000   1.0000
     1.0000   1.0000   1.0000   1.0000   1.0000   1.0000   1.0000   1.0000
     1.0000   1.0000   1.0000   1.0000   1.0000   1.0000   1.0000   1.0000
     1.0000   1.0000   1.0000   1.0000   1.0000   1.0000   1.0000   1.0000
     1.0000   1.0000

          k =-0.0000-0.4108 0.1321 (  5889 PWs)   bands (ev):

   -47.7104 -47.7045 -35.3679 -35.3667 -23.9408 -23.9380 -23.8754 -23.8741
   -23.8726 -23.7975  -9.7876  -9.3171  -9.2994  -8.9954  -8.8446  -8.8025
     2.4011   2.5541   2.9153   3.2240   3.3058   3.5323   3.5902   3.9418
     4.1421   4.8263   5.1370   5.4263   6.0411   6.1346   6.1681   6.2659
     6.3897   6.5100

     occupation numbers 
     1.0000   1.0000   1.0000   1.0000   1.0000   1.0000   1.0000   1.0000
     1.0000   1.0000   1.0000   1.0000   1.0000   1.0000   1.0000   1.0000
     1.0000   1.0000   1.0000   1.0000   1.0000   1.0000   1.0000   1.0000
     1.0000   1.0000   1.0000   1.0000   1.0000   1.0000   1.0000   1.0000
     1.0000   1.0000

          k = 0.0000 0.6162-0.1982 (  5920 PWs)   bands (ev):

   -47.7075 -47.7075 -35.3673 -35.3673 -23.9094 -23.9094 -23.9059 -23.9059
   -23.8355 -23.8355  -9.4187  -9.4187  -9.1001  -9.1001  -9.0213  -9.0213
     2.7480   2.7480   3.0136   3.0136   3.4221   3.4221   3.8929   3.8929
     4.3868   4.3868   4.7736   4.7736   6.2011   6.2011   6.2990   6.2990
     6.3860   6.3860

     occupation numbers 
     1.0000   1.0000   1.0000   1.0000   1.0000   1.0000   1.0000   1.0000
     1.0000   1.0000   1.0000   1.0000   1.0000   1.0000   1.0000   1.0000
     1.0000   1.0000   1.0000   1.0000   1.0000   1.0000   1.0000   1.0000
     1.0000   1.0000   1.0000   1.0000   1.0000   1.0000   1.0000   1.0000
     1.0000   1.0000

          k =-0.1779-0.1027 0.1321 (  5882 PWs)   bands (ev):

   -47.7124 -47.7026 -35.3682 -35.3663 -23.9714 -23.9538 -23.8931 -23.8680
   -23.8376 -23.7685 -10.0515  -9.4903  -9.3719  -8.8726  -8.6309  -8.5651
     2.2628   2.3524   2.5422   2.8722   2.8770   3.5446   3.8256   4.4812
     4.5365   5.3589   5.4831   5.7103   5.8690   5.9118   6.0481   6.2082
     6.4834   6.5311

     occupation numbers 
     1.0000   1.0000   1.0000   1.0000   1.0000   1.0000   1.0000   1.0000
     1.0000   1.0000   1.0000   1.0000   1.0000   1.0000   1.0000   1.0000
     1.0000   1.0000   1.0000   1.0000   1.0000   1.0000   1.0000   1.0000
     1.0000   1.0000   1.0000   1.0000   1.0000   1.0000   1.0000   1.0000
     1.0000   1.0000

          k =-0.1779-0.3081 0.1982 (  5891 PWs)   bands (ev):

   -47.7109 -47.7041 -35.3680 -35.3666 -23.9654 -23.9400 -23.9013 -23.8621
   -23.8460 -23.7816  -9.8867  -9.4224  -9.2114  -9.0923  -8.7283  -8.6773
     2.2309   2.4872   2.8360   3.0345   3.1957   3.4004   3.8852   4.0983
     4.4784   5.0153   5.3172   5.6583   5.7612   5.9072   6.0396   6.2431
     6.3562   6.5157

     occupation numbers 
     1.0000   1.0000   1.0000   1.0000   1.0000   1.0000   1.0000   1.0000
     1.0000   1.0000   1.0000   1.0000   1.0000   1.0000   1.0000   1.0000
     1.0000   1.0000   1.0000   1.0000   1.0000   1.0000   1.0000   1.0000
     1.0000   1.0000   1.0000   1.0000   1.0000   1.0000   1.0000   1.0000
     1.0000   1.0000

          k =-0.1779 0.7189-0.1321 (  5894 PWs)   bands (ev):

   -47.7084 -47.7065 -35.3675 -35.3671 -23.9441 -23.9347 -23.9141 -23.8714
   -23.8264 -23.8096  -9.5997  -9.4148  -9.2640  -8.9556  -8.9383  -8.8788
     2.4054   2.5938   2.8145   3.2625   3.4615   3.5381   3.7535   4.0393
     4.2431   4.6247   5.0320   5.3737   5.8513   6.0583   6.0914   6.1962
     6.3714   6.4604

     occupation numbers 
     1.0000   1.0000   1.0000   1.0000   1.0000   1.0000   1.0000   1.0000
     1.0000   1.0000   1.0000   1.0000   1.0000   1.0000   1.0000   1.0000
     1.0000   1.0000   1.0000   1.0000   1.0000   1.0000   1.0000   1.0000
     1.0000   1.0000   1.0000   1.0000   1.0000   1.0000   1.0000   1.0000
     1.0000   1.0000

          k =-0.1779 0.5135-0.0661 (  5901 PWs)   bands (ev):

   -47.7092 -47.7058 -35.3677 -35.3670 -23.9580 -23.9116 -23.9053 -23.8813
   -23.8463 -23.7974  -9.6922  -9.2876  -9.2015  -9.1006  -9.0276  -8.7377
     2.3242   2.7634   2.8940   3.0191   3.2095   3.5974   3.8250   4.0273
     4.3373   4.7417   4.9860   5.5504   5.7593   5.9359   6.1488   6.3038
     6.3648   6.4915

     occupation numbers 
     1.0000   1.0000   1.0000   1.0000   1.0000   1.0000   1.0000   1.0000
     1.0000   1.0000   1.0000   1.0000   1.0000   1.0000   1.0000   1.0000
     1.0000   1.0000   1.0000   1.0000   1.0000   1.0000   1.0000   1.0000
     1.0000   1.0000   1.0000   1.0000   1.0000   1.0000   1.0000   1.0000
     1.0000   1.0000

          k =-0.1779 0.3081 0.0000 (  5882 PWs)   bands (ev):

   -47.7114 -47.7035 -35.3681 -35.3665 -23.9659 -23.9381 -23.8818 -23.8764
   -23.8543 -23.7794  -9.9256  -9.4093  -9.3200  -8.9243  -8.8114  -8.6205
     2.2540   2.4600   2.7574   2.8866   3.2275   3.5726   3.7078   3.9051
     4.5927   5.1939   5.4272   5.6071   5.8756   5.9706   6.1285   6.2672
     6.3348   6.5430

     occupation numbers 
     1.0000   1.0000   1.0000   1.0000   1.0000   1.0000   1.0000   1.0000
     1.0000   1.0000   1.0000   1.0000   1.0000   1.0000   1.0000   1.0000
     1.0000   1.0000   1.0000   1.0000   1.0000   1.0000   1.0000   1.0000
     1.0000   1.0000   1.0000   1.0000   1.0000   1.0000   1.0000   1.0000
     1.0000   1.0000

          k =-0.3558-0.2054 0.2642 (  5915 PWs)   bands (ev):

   -47.7104 -47.7045 -35.3679 -35.3667 -23.9759 -23.9466 -23.9365 -23.8347
   -23.8288 -23.7738  -9.8893  -9.4559  -9.3107  -9.0113  -8.6865  -8.6375
     2.2180   2.3930   2.5715   2.6829   3.3123   3.6433   4.2052   4.4155
     4.7929   5.1126   5.3489   5.4864   5.5262   5.8345   5.8436   6.1811
     6.1853   6.4495

     occupation numbers 
     1.0000   1.0000   1.0000   1.0000   1.0000   1.0000   1.0000   1.0000
     1.0000   1.0000   1.0000   1.0000   1.0000   1.0000   1.0000   1.0000
     1.0000   1.0000   1.0000   1.0000   1.0000   1.0000   1.0000   1.0000
     1.0000   1.0000   1.0000   1.0000   1.0000   1.0000   1.0000   1.0000
     1.0000   1.0000

          k =-0.3558 0.8217-0.0661 (  5890 PWs)   bands (ev):

   -47.7092 -47.7058 -35.3677 -35.3670 -23.9692 -23.9618 -23.9371 -23.8433
   -23.8026 -23.7840  -9.7643  -9.4962  -9.3863  -8.8388  -8.7719  -8.7349
     2.1897   2.2976   2.5103   2.8521   3.5420   3.8639   4.0438   4.4743
     4.6621   5.0210   5.2781   5.4390   5.5357   5.7397   5.8684   6.0338
     6.2159   6.4614

     occupation numbers 
     1.0000   1.0000   1.0000   1.0000   1.0000   1.0000   1.0000   1.0000
     1.0000   1.0000   1.0000   1.0000   1.0000   1.0000   1.0000   1.0000
     1.0000   1.0000   1.0000   1.0000   1.0000   1.0000   1.0000   1.0000
     1.0000   1.0000   1.0000   1.0000   1.0000   1.0000   1.0000   1.0000
     1.0000   1.0000

          k =-0.3558 0.6162 0.0000 (  5902 PWs)   bands (ev):

   -47.7075 -47.7075 -35.3673 -35.3673 -23.9694 -23.9460 -23.9116 -23.8697
   -23.8108 -23.7923  -9.6181  -9.5329  -9.2447  -8.9889  -8.9047  -8.7312
     2.1839   2.4040   2.7903   3.1686   3.4564   3.5106   3.9908   4.2948
     4.4672   4.8637   5.1857   5.3982   5.7187   5.7770   5.9223   6.1835
     6.2662   6.4751

     occupation numbers 
     1.0000   1.0000   1.0000   1.0000   1.0000   1.0000   1.0000   1.0000
     1.0000   1.0000   1.0000   1.0000   1.0000   1.0000   1.0000   1.0000
     1.0000   1.0000   1.0000   1.0000   1.0000   1.0000   1.0000   1.0000
     1.0000   1.0000   1.0000   1.0000   1.0000   1.0000   1.0000   1.0000
     1.0000   1.0000

          k = 0.5337 0.3081-0.3963 (  5896 PWs)   bands (ev):

   -47.7094 -47.7055 -35.3677 -35.3669 -23.9783 -23.9721 -23.9467 -23.8328
   -23.7928 -23.7743  -9.8260  -9.5334  -9.4273  -8.7959  -8.7071  -8.6728
     2.1651   2.2065   2.3815   2.5048   3.8395   4.0539   4.3059   4.6880
     4.7728   4.8460   5.2882   5.3629   5.5579   5.6279   5.8619   5.9577
     6.1239   6.4086

     occupation numbers 
     1.0000   1.0000   1.0000   1.0000   1.0000   1.0000   1.0000   1.0000
     1.0000   1.0000   1.0000   1.0000   1.0000   1.0000   1.0000   1.0000
     1.0000   1.0000   1.0000   1.0000   1.0000   1.0000   1.0000   1.0000
     1.0000   1.0000   1.0000   1.0000   1.0000   1.0000   1.0000   1.0000
     1.0000   1.0000

          k = 0.0000-0.0000 0.1982 (  5902 PWs)   bands (ev):

   -47.7126 -47.7024 -35.3682 -35.3663 -23.9608 -23.9608 -23.9028 -23.8482
   -23.8482 -23.7704 -10.0722  -9.4477  -9.4477  -8.8162  -8.6027  -8.6027
     2.3729   2.3729   2.6243   2.7873   2.7873   3.4182   4.3183   4.3183
     4.3222   5.4828   5.4828   5.4927   5.7045   6.0016   6.0016   6.1442
     6.6055   6.6055

     occupation numbers 
     1.0000   1.0000   1.0000   1.0000   1.0000   1.0000   1.0000   1.0000
     1.0000   1.0000   1.0000   1.0000   1.0000   1.0000   1.0000   1.0000
     1.0000   1.0000   1.0000   1.0000   1.0000   1.0000   1.0000   1.0000
     1.0000   1.0000   1.0000   1.0000   1.0000   1.0000   1.0000   1.0000
     1.0000   1.0000

          k = 0.0000-0.2054 0.2642 (  5897 PWs)   bands (ev):

   -47.7114 -47.7036 -35.3680 -35.3665 -23.9661 -23.9357 -23.8832 -23.8745
   -23.8550 -23.7801  -9.9427  -9.3959  -9.3144  -8.9805  -8.7695  -8.6234
     2.2750   2.5381   2.8151   3.0713   3.1480   3.5751   3.8683   3.9449
     4.3741   4.9074   5.3595   5.6101   5.6691   5.9678   6.1453   6.1719
     6.4812   6.5181

     occupation numbers 
     1.0000   1.0000   1.0000   1.0000   1.0000   1.0000   1.0000   1.0000
     1.0000   1.0000   1.0000   1.0000   1.0000   1.0000   1.0000   1.0000
     1.0000   1.0000   1.0000   1.0000   1.0000   1.0000   1.0000   1.0000
     1.0000   1.0000   1.0000   1.0000   1.0000   1.0000   1.0000   1.0000
     1.0000   1.0000

          k = 0.0000 0.8217-0.0661 (  5906 PWs)   bands (ev):

   -47.7092 -47.7058 -35.3676 -35.3670 -23.9588 -23.9090 -23.9025 -23.8834
   -23.8479 -23.7974  -9.7018  -9.2901  -9.2346  -9.0869  -8.9922  -8.7518
     2.2864   2.7325   3.0739   3.2545   3.3357   3.6320   3.6709   4.0602
     4.2089   4.3299   5.0606   5.5212   5.8326   5.9127   6.1573   6.2653
     6.3632   6.4003

     occupation numbers 
     1.0000   1.0000   1.0000   1.0000   1.0000   1.0000   1.0000   1.0000
     1.0000   1.0000   1.0000   1.0000   1.0000   1.0000   1.0000   1.0000
     1.0000   1.0000   1.0000   1.0000   1.0000   1.0000   1.0000   1.0000
     1.0000   1.0000   1.0000   1.0000   1.0000   1.0000   1.0000   1.0000
     1.0000   1.0000

          k = 0.0000 0.6162 0.0000 (  5915 PWs)   bands (ev):

   -47.7085 -47.7065 -35.3675 -35.3671 -23.9422 -23.9357 -23.9165 -23.8695
   -23.8261 -23.8104  -9.6020  -9.4154  -9.2554  -8.9651  -8.9480  -8.8652
     2.5187   2.6660   2.7185   2.9713   3.3642   3.5944   3.8648   4.1642
     4.4715   4.6057   5.0184   5.1922   5.8403   6.0481   6.1086   6.2306
     6.2642   6.4921

     occupation numbers 
     1.0000   1.0000   1.0000   1.0000   1.0000   1.0000   1.0000   1.0000
     1.0000   1.0000   1.0000   1.0000   1.0000   1.0000   1.0000   1.0000
     1.0000   1.0000   1.0000   1.0000   1.0000   1.0000   1.0000   1.0000
     1.0000   1.0000   1.0000   1.0000   1.0000   1.0000   1.0000   1.0000
     1.0000   1.0000

          k = 0.0000 0.4108 0.0661 (  5891 PWs)   bands (ev):

   -47.7109 -47.7041 -35.3680 -35.3666 -23.9648 -23.9414 -23.9020 -23.8617
   -23.8455 -23.7816  -9.8812  -9.4301  -9.1937  -9.1006  -8.7401  -8.6677
     2.3315   2.4575   2.6093   3.0924   3.1184   3.3765   3.8877   4.2347
     4.4792   5.2225   5.3654   5.5791   5.7529   5.8593   6.0362   6.2630
     6.3430   6.5183

     occupation numbers 
     1.0000   1.0000   1.0000   1.0000   1.0000   1.0000   1.0000   1.0000
     1.0000   1.0000   1.0000   1.0000   1.0000   1.0000   1.0000   1.0000
     1.0000   1.0000   1.0000   1.0000   1.0000   1.0000   1.0000   1.0000
     1.0000   1.0000   1.0000   1.0000   1.0000   1.0000   1.0000   1.0000
     1.0000   1.0000

          k =-0.1779-0.1027 0.3303 (  5901 PWs)   bands (ev):

   -47.7109 -47.7041 -35.3679 -35.3666 -23.9645 -23.9396 -23.9006 -23.8628
   -23.8452 -23.7824  -9.9038  -9.4115  -9.1853  -9.1367  -8.7377  -8.6585
     2.3786   2.5100   2.8395   3.1108   3.1698   3.4024   3.9166   4.2778
     4.3406   4.9484   5.1340   5.6039   5.6461   5.8196   5.9041   6.2190
     6.4039   6.5314

     occupation numbers 
     1.0000   1.0000   1.0000   1.0000   1.0000   1.0000   1.0000   1.0000
     1.0000   1.0000   1.0000   1.0000   1.0000   1.0000   1.0000   1.0000
     1.0000   1.0000   1.0000   1.0000   1.0000   1.0000   1.0000   1.0000
     1.0000   1.0000   1.0000   1.0000   1.0000   1.0000   1.0000   1.0000
     1.0000   1.0000

          k =-0.1779 0.9244 0.0000 (  5919 PWs)   bands (ev):

   -47.7095 -47.7055 -35.3677 -35.3669 -23.9686 -23.9353 -23.9207 -23.8581
   -23.8283 -23.7865  -9.7768  -9.3750  -9.3269  -8.9816  -8.8878  -8.6849
     2.2492   2.5757   2.7612   3.1998   3.2834   3.6502   3.8507   4.2496
     4.4931   4.7653   5.2555   5.3816   5.6079   5.7808   5.9377   6.1569
     6.2880   6.4273

     occupation numbers 
     1.0000   1.0000   1.0000   1.0000   1.0000   1.0000   1.0000   1.0000
     1.0000   1.0000   1.0000   1.0000   1.0000   1.0000   1.0000   1.0000
     1.0000   1.0000   1.0000   1.0000   1.0000   1.0000   1.0000   1.0000
     1.0000   1.0000   1.0000   1.0000   1.0000   1.0000   1.0000   1.0000
     1.0000   1.0000

          k =-0.1779 0.7189 0.0661 (  5902 PWs)   bands (ev):

   -47.7075 -47.7075 -35.3673 -35.3673 -23.9609 -23.9600 -23.8896 -23.8882
   -23.8006 -23.8001  -9.5937  -9.5809  -9.1776  -9.0905  -8.7996  -8.7831
     2.2625   2.3631   2.8285   3.0571   3.4639   3.8176   3.8763   4.1603
     4.5071   4.8399   5.2881   5.3925   5.5303   5.7765   5.9511   6.1070
     6.3020   6.4089

     occupation numbers 
     1.0000   1.0000   1.0000   1.0000   1.0000   1.0000   1.0000   1.0000
     1.0000   1.0000   1.0000   1.0000   1.0000   1.0000   1.0000   1.0000
     1.0000   1.0000   1.0000   1.0000   1.0000   1.0000   1.0000   1.0000
     1.0000   1.0000   1.0000   1.0000   1.0000   1.0000   1.0000   1.0000
     1.0000   1.0000

          k =-0.1779 0.5135 0.1321 (  5902 PWs)   bands (ev):

   -47.7094 -47.7055 -35.3677 -35.3669 -23.9685 -23.9363 -23.9222 -23.8581
   -23.8276 -23.7861  -9.7613  -9.3699  -9.3246  -8.9829  -8.8995  -8.6797
     2.2180   2.5661   2.6419   2.9661   3.3031   3.6714   3.8295   4.3668
     4.5066   5.0163   5.1935   5.4862   5.6803   5.8944   5.9741   6.0984
     6.2870   6.4975

     occupation numbers 
     1.0000   1.0000   1.0000   1.0000   1.0000   1.0000   1.0000   1.0000
     1.0000   1.0000   1.0000   1.0000   1.0000   1.0000   1.0000   1.0000
     1.0000   1.0000   1.0000   1.0000   1.0000   1.0000   1.0000   1.0000
     1.0000   1.0000   1.0000   1.0000   1.0000   1.0000   1.0000   1.0000
     1.0000   1.0000

          k = 0.7116 0.4108-0.3303 (  5918 PWs)   bands (ev):

   -47.7092 -47.7058 -35.3677 -35.3670 -23.9684 -23.9615 -23.9373 -23.8425
   -23.8028 -23.7846  -9.7760  -9.5040  -9.3760  -8.8403  -8.7850  -8.7211
     2.3194   2.3678   2.4643   2.7699   3.6391   3.7975   4.1358   4.4165
     4.8322   4.9376   5.2578   5.3140   5.5363   5.6439   5.8338   5.9714
     6.0997   6.4572

     occupation numbers 
     1.0000   1.0000   1.0000   1.0000   1.0000   1.0000   1.0000   1.0000
     1.0000   1.0000   1.0000   1.0000   1.0000   1.0000   1.0000   1.0000
     1.0000   1.0000   1.0000   1.0000   1.0000   1.0000   1.0000   1.0000
     1.0000   1.0000   1.0000   1.0000   1.0000   1.0000   1.0000   1.0000
     1.0000   1.0000

          k = 0.7116 0.2054-0.2642 (  5915 PWs)   bands (ev):

   -47.7085 -47.7065 -35.3675 -35.3671 -23.9714 -23.9700 -23.9206 -23.8569
   -23.7927 -23.7868  -9.7078  -9.5743  -9.3089  -8.9299  -8.7637  -8.7113
     2.1799   2.2158   2.5931   3.0481   3.3349   4.0304   4.1878   4.3292
     4.8360   4.9474   5.1651   5.2723   5.5320   5.6795   5.9310   5.9961
     6.1472   6.4425

     occupation numbers 
     1.0000   1.0000   1.0000   1.0000   1.0000   1.0000   1.0000   1.0000
     1.0000   1.0000   1.0000   1.0000   1.0000   1.0000   1.0000   1.0000
     1.0000   1.0000   1.0000   1.0000   1.0000   1.0000   1.0000   1.0000
     1.0000   1.0000   1.0000   1.0000   1.0000   1.0000   1.0000   1.0000
     1.0000   1.0000

          k = 0.7116-0.0000-0.1982 (  5894 PWs)   bands (ev):

   -47.7075 -47.7075 -35.3673 -35.3673 -23.9606 -23.9606 -23.8893 -23.8893
   -23.8001 -23.8001  -9.5826  -9.5826  -9.1394  -9.1394  -8.7882  -8.7882
     2.2767   2.2767   2.9408   2.9408   3.6069   3.6069   4.0248   4.0248
     4.6535   4.6535   5.3984   5.3984   5.6953   5.6953   6.0435   6.0435
     6.3869   6.3869

     occupation numbers 
     1.0000   1.0000   1.0000   1.0000   1.0000   1.0000   1.0000   1.0000
     1.0000   1.0000   1.0000   1.0000   1.0000   1.0000   1.0000   1.0000
     1.0000   1.0000   1.0000   1.0000   1.0000   1.0000   1.0000   1.0000
     1.0000   1.0000   1.0000   1.0000   1.0000   1.0000   1.0000   1.0000
     1.0000   1.0000

          k = 0.5337 0.3081-0.1982 (  5904 PWs)   bands (ev):

   -47.7092 -47.7058 -35.3677 -35.3670 -23.9686 -23.9620 -23.9378 -23.8426
   -23.8026 -23.7844  -9.7652  -9.4984  -9.3813  -8.8437  -8.7780  -8.7257
     2.2530   2.3694   2.4614   2.6527   3.5993   3.8749   4.1532   4.4239
     4.7794   4.8818   5.3316   5.5032   5.6514   5.6822   5.8515   5.9334
     6.1070   6.4771

     occupation numbers 
     1.0000   1.0000   1.0000   1.0000   1.0000   1.0000   1.0000   1.0000
     1.0000   1.0000   1.0000   1.0000   1.0000   1.0000   1.0000   1.0000
     1.0000   1.0000   1.0000   1.0000   1.0000   1.0000   1.0000   1.0000
     1.0000   1.0000   1.0000   1.0000   1.0000   1.0000   1.0000   1.0000
     1.0000   1.0000

          k = 0.0000-0.0000 0.3963 (  5881 PWs)   bands (ev):

   -47.7104 -47.7045 -35.3678 -35.3667 -23.9375 -23.9375 -23.8760 -23.8725
   -23.8725 -23.7995  -9.8253  -9.2803  -9.2803  -9.1027  -8.7938  -8.7938
     2.6815   2.6815   2.9812   3.2884   3.2884   3.7454   3.8030   3.8030
     3.8916   4.8079   4.8079   5.0766   5.7242   6.1002   6.1002   6.1269
     6.5138   6.5138

     occupation numbers 
     1.0000   1.0000   1.0000   1.0000   1.0000   1.0000   1.0000   1.0000
     1.0000   1.0000   1.0000   1.0000   1.0000   1.0000   1.0000   1.0000
     1.0000   1.0000   1.0000   1.0000   1.0000   1.0000   1.0000   1.0000
     1.0000   1.0000   1.0000   1.0000   1.0000   1.0000   1.0000   1.0000
     1.0000   1.0000

          k = 0.0000 1.0271 0.0661 (  5902 PWs)   bands (ev):

   -47.7092 -47.7058 -35.3676 -35.3670 -23.9574 -23.9087 -23.9021 -23.8818
   -23.8487 -23.7985  -9.7249  -9.3060  -9.2136  -9.0950  -8.9993  -8.7382
     2.4532   2.8838   3.0896   3.2943   3.3064   3.6250   3.7719   4.0650
     4.2024   4.2376   4.8790   5.3029   5.7047   5.7441   6.1417   6.2779
     6.3415   6.3927

     occupation numbers 
     1.0000   1.0000   1.0000   1.0000   1.0000   1.0000   1.0000   1.0000
     1.0000   1.0000   1.0000   1.0000   1.0000   1.0000   1.0000   1.0000
     1.0000   1.0000   1.0000   1.0000   1.0000   1.0000   1.0000   1.0000
     1.0000   1.0000   1.0000   1.0000   1.0000   1.0000   1.0000   1.0000
     1.0000   1.0000

          k = 0.0000 0.8217 0.1321 (  5916 PWs)   bands (ev):

   -47.7075 -47.7075 -35.3673 -35.3673 -23.9694 -23.9439 -23.9129 -23.8674
   -23.8123 -23.7926  -9.6290  -9.5555  -9.2297  -8.9853  -8.8985  -8.7374
     2.2207   2.6739   2.6895   3.1611   3.4645   3.4763   4.1598   4.2341
     4.5887   4.7560   5.1866   5.2078   5.4911   5.7672   5.9522   6.0496
     6.1836   6.4600

     occupation numbers 
     1.0000   1.0000   1.0000   1.0000   1.0000   1.0000   1.0000   1.0000
     1.0000   1.0000   1.0000   1.0000   1.0000   1.0000   1.0000   1.0000
     1.0000   1.0000   1.0000   1.0000   1.0000   1.0000   1.0000   1.0000
     1.0000   1.0000   1.0000   1.0000   1.0000   1.0000   1.0000   1.0000
     1.0000   1.0000

          k = 0.8895 0.5135-0.2642 (  5910 PWs)   bands (ev):

   -47.7085 -47.7065 -35.3675 -35.3671 -23.9416 -23.9337 -23.9141 -23.8690
   -23.8275 -23.8115  -9.6381  -9.4427  -9.2348  -8.9600  -8.9501  -8.8551
     2.7125   2.8020   2.8063   3.3548   3.4242   3.5846   3.7200   4.0383
     4.3635   4.4752   4.7798   4.9803   5.7704   5.8508   6.0381   6.1957
     6.2370   6.4468

     occupation numbers 
     1.0000   1.0000   1.0000   1.0000   1.0000   1.0000   1.0000   1.0000
     1.0000   1.0000   1.0000   1.0000   1.0000   1.0000   1.0000   1.0000
     1.0000   1.0000   1.0000   1.0000   1.0000   1.0000   1.0000   1.0000
     1.0000   1.0000   1.0000   1.0000   1.0000   1.0000   1.0000   1.0000
     1.0000   1.0000

          k = 0.8895 0.3081-0.1982 (  5910 PWs)   bands (ev):

   -47.7075 -47.7075 -35.3673 -35.3673 -23.9598 -23.9598 -23.8884 -23.8884
   -23.8008 -23.8008  -9.6020  -9.6020  -9.1286  -9.1286  -8.7895  -8.7895
     2.3937   2.3937   2.9579   2.9579   3.6844   3.6844   3.9721   3.9721
     4.7164   4.7164   5.2021   5.2021   5.5700   5.5700   5.9781   5.9781
     6.3402   6.3402

     occupation numbers 
     1.0000   1.0000   1.0000   1.0000   1.0000   1.0000   1.0000   1.0000
     1.0000   1.0000   1.0000   1.0000   1.0000   1.0000   1.0000   1.0000
     1.0000   1.0000   1.0000   1.0000   1.0000   1.0000   1.0000   1.0000
     1.0000   1.0000   1.0000   1.0000   1.0000   1.0000   1.0000   1.0000
     1.0000   1.0000

          k = 0.0000 0.0000-0.5945 (  5902 PWs)   bands (ev):

   -47.7075 -47.7075 -35.3673 -35.3673 -23.9052 -23.9052 -23.9052 -23.9052
   -23.8383 -23.8383  -9.4738  -9.4738  -9.0429  -9.0429  -9.0429  -9.0429
     3.1816   3.1816   3.1816   3.1816   3.4211   3.4211   4.0203   4.0203
     4.0203   4.0203   4.3416   4.3416   5.9733   5.9733   6.3093   6.3093
     6.3093   6.3093

     occupation numbers 
     1.0000   1.0000   1.0000   1.0000   1.0000   1.0000   1.0000   1.0000
     1.0000   1.0000   1.0000   1.0000   1.0000   1.0000   1.0000   1.0000
     1.0000   1.0000   1.0000   1.0000   1.0000   1.0000   1.0000   1.0000
     1.0000   1.0000   1.0000   1.0000   1.0000   1.0000   1.0000   1.0000
     1.0000   1.0000

     highest occupied level (ev):     6.6055

!    total energy              =    -936.82443657 Ry
     estimated scf accuracy    <          4.8E-13 Ry

     The total energy is the sum of the following terms:
     one-electron contribution =    -148.34843107 Ry
     hartree contribution      =     107.09739813 Ry
     xc contribution           =    -107.93359918 Ry
     ewald contribution        =    -324.18607679 Ry
     one-center paw contrib.   =    -463.45372766 Ry
      -> PAW hartree energy AE =     290.28768575 Ry
      -> PAW hartree energy PS =    -288.78172662 Ry
      -> PAW xc energy AE      =    -560.23415466 Ry
      -> PAW xc energy PS      =      95.27446787 Ry
      -> total E_H with PAW    =     108.60335726 Ry
      -> total E_XC with PAW   =    -572.89328597 Ry

     convergence has been achieved in  28 iterations

     Forces acting on atoms (cartesian axes, Ry/au):

     atom    1 type  1   force =    -0.00000000   -0.00000000    0.00025728
     atom    2 type  1   force =    -0.00000000   -0.00000000    0.00025728
     atom    3 type  2   force =     0.02399634   -0.00581526   -0.00662419
     atom    4 type  2   force =    -0.00696201    0.02368907   -0.00662419
     atom    5 type  2   force =    -0.01703433   -0.01787381   -0.00662419
     atom    6 type  2   force =     0.00696201    0.02368907   -0.00662419
     atom    7 type  2   force =    -0.02399634   -0.00581526   -0.00662419
     atom    8 type  2   force =     0.01703433   -0.01787381   -0.00662419
     atom    9 type  3   force =     0.00000000    0.00000000    0.01961529
     atom   10 type  3   force =     0.00000000    0.00000000    0.01961529
     The non-local contrib.  to forces
     atom    1 type  1   force =    -0.00000000   -0.00000000    0.00942399
     atom    2 type  1   force =    -0.00000000   -0.00000000    0.00942399
     atom    3 type  2   force =     0.34515046   -0.18916993   -0.04532508
     atom    4 type  2   force =    -0.00874926    0.39349403   -0.04532508
     atom    5 type  2   force =    -0.33640120   -0.20432410   -0.04532508
     atom    6 type  2   force =     0.00874926    0.39349403   -0.04532508
     atom    7 type  2   force =    -0.34515046   -0.18916993   -0.04532508
     atom    8 type  2   force =     0.33640120   -0.20432410   -0.04532508
     atom    9 type  3   force =    -0.00000000   -0.00000000   -0.00381217
     atom   10 type  3   force =     0.00000000   -0.00000000   -0.00381217
     The ionic contribution  to forces
     atom    1 type  1   force =     0.00000000   -0.00000000   -1.05200540
     atom    2 type  1   force =    -0.00000000   -0.00000000   -1.05200540
     atom    3 type  2   force =    -3.53316216    2.62390507    0.38011871
     atom    4 type  2   force =    -0.50578736   -4.37176072    0.38011871
     atom    5 type  2   force =     4.03894953    1.74785566    0.38011871
     atom    6 type  2   force =     0.50578736   -4.37176072    0.38011871
     atom    7 type  2   force =     3.53316216    2.62390507    0.38011871
     atom    8 type  2   force =    -4.03894953    1.74785565    0.38011871
     atom    9 type  3   force =     0.00000000   -0.00000000   -0.08835073
     atom   10 type  3   force =     0.00000000    0.00000000   -0.08835074
     The local contribution  to forces
     atom    1 type  1   force =    -0.00000000   -0.00000000    1.04283868
     atom    2 type  1   force =    -0.00000000    0.00000000    1.04283868
     atom    3 type  2   force =     3.21377059   -2.44226494   -0.34136637
     atom    4 type  2   force =     0.50817819    4.00433944   -0.34136637
     atom    5 type  2   force =    -3.72194877   -1.56207449   -0.34136638
     atom    6 type  2   force =    -0.50817819    4.00433944   -0.34136638
     atom    7 type  2   force =    -3.21377059   -2.44226494   -0.34136638
     atom    8 type  2   force =     3.72194877   -1.56207450   -0.34136638
     atom    9 type  3   force =     0.00000000    0.00000000    0.11735264
     atom   10 type  3   force =    -0.00000000    0.00000000    0.11735264
     The core correction contribution to forces
     atom    1 type  1   force =     0.00000000    0.00000000    0.00000000
     atom    2 type  1   force =     0.00000000    0.00000000    0.00000000
     atom    3 type  2   force =    -0.00176277    0.00171464   -0.00005145
     atom    4 type  2   force =    -0.00060354   -0.00238392   -0.00005145
     atom    5 type  2   force =     0.00236631    0.00066928   -0.00005145
     atom    6 type  2   force =     0.00060354   -0.00238392   -0.00005145
     atom    7 type  2   force =     0.00176277    0.00171464   -0.00005145
     atom    8 type  2   force =    -0.00236631    0.00066928   -0.00005145
     atom    9 type  3   force =     0.00000000    0.00000000   -0.00557452
     atom   10 type  3   force =    -0.00000000   -0.00000000   -0.00557452
     The Hubbard contrib.    to forces
     atom    1 type  1   force =     0.00000000    0.00000000    0.00000000
     atom    2 type  1   force =     0.00000000    0.00000000    0.00000000
     atom    3 type  2   force =     0.00000000    0.00000000    0.00000000
     atom    4 type  2   force =     0.00000000    0.00000000    0.00000000
     atom    5 type  2   force =     0.00000000    0.00000000    0.00000000
     atom    6 type  2   force =     0.00000000    0.00000000    0.00000000
     atom    7 type  2   force =     0.00000000    0.00000000    0.00000000
     atom    8 type  2   force =     0.00000000    0.00000000    0.00000000
     atom    9 type  3   force =     0.00000000    0.00000000    0.00000000
     atom   10 type  3   force =     0.00000000    0.00000000    0.00000000
     The SCF correction term to forces
     atom    1 type  1   force =    -0.00000000   -0.00000000    0.00000001
     atom    2 type  1   force =    -0.00000000    0.00000000    0.00000001
     atom    3 type  2   force =     0.00000023   -0.00000009    0.00000001
     atom    4 type  2   force =    -0.00000004    0.00000025    0.00000001
     atom    5 type  2   force =    -0.00000019   -0.00000016    0.00000001
     atom    6 type  2   force =     0.00000004    0.00000025    0.00000001
     atom    7 type  2   force =    -0.00000023   -0.00000009    0.00000001
     atom    8 type  2   force =     0.00000019   -0.00000016    0.00000001
     atom    9 type  3   force =    -0.00000000    0.00000000    0.00000008
     atom   10 type  3   force =    -0.00000000    0.00000000    0.00000008

     Total force =     0.068489     Total SCF correction =     0.000001


     Computing stress (Cartesian axis) and pressure

          total   stress  (Ry/bohr**3)                   (kbar)     P=     -109.37
  -0.00077065  -0.00000000  -0.00000000         -113.37       -0.00       -0.00
  -0.00000000  -0.00077065  -0.00000000           -0.00     -113.37       -0.00
   0.00000000  -0.00000000  -0.00068919            0.00       -0.00     -101.38

     kinetic stress (kbar)  25083.63      0.00     -0.00
                                0.00  25083.63      0.00
                               -0.00      0.00  25051.67

     local   stress (kbar) -12775.24     -0.00     -0.00
                               -0.00 -12775.24     -0.00
                               -0.00     -0.00 -10976.71

     nonloc. stress (kbar)   6566.93      0.00      0.00
                                0.00   6566.93      0.00
                                0.00      0.00   6605.65

     hartree stress (kbar)   7128.51     -0.00      0.00
                               -0.00   7128.51      0.00
                                0.00      0.00   6696.14

     exc-cor stress (kbar)   1038.80      0.00     -0.00
                                0.00   1038.80      0.00
                               -0.00      0.00   1035.92

     corecor stress (kbar)  -6466.59     -0.00      0.00
                               -0.00  -6466.59     -0.00
                                0.00     -0.00  -6467.20

     ewald   stress (kbar) -20689.40      0.00      0.00
                                0.00 -20689.40      0.00
                                0.00      0.00 -22046.86

     hubbard stress (kbar)      0.00      0.00      0.00
                                0.00      0.00      0.00
                                0.00      0.00      0.00

     DFT-D   stress (kbar)      0.00      0.00      0.00
                                0.00      0.00      0.00
                                0.00      0.00      0.00

     XDM     stress (kbar)      0.00      0.00      0.00
                                0.00      0.00      0.00
                                0.00      0.00      0.00

     dft-nl  stress (kbar)      0.00      0.00      0.00
                                0.00      0.00      0.00
                                0.00      0.00      0.00

     TS-vdW  stress (kbar)      0.00      0.00      0.00
                                0.00      0.00      0.00
                                0.00      0.00      0.00

     MDB     stress (kbar)      0.00      0.00      0.00
                                0.00      0.00      0.00
                                0.00      0.00      0.00

     3D-RISM stress (kbar)      0.00      0.00      0.00
                                0.00      0.00      0.00
                                0.00      0.00      0.00

     Message from routine punch:
     Nothing written, as per user request (disk_io='none')
 
     init_run     :      0.65s CPU      0.87s WALL (       1 calls)
     electrons    :     21.05s CPU     21.54s WALL (       1 calls)
     forces       :      0.07s CPU      0.08s WALL (       1 calls)
     stress       :      0.15s CPU      0.16s WALL (       1 calls)

     Called by init_run:
     wfcinit      :      0.20s CPU      0.30s WALL (       1 calls)
     wfcinit:atom :      0.03s CPU      0.03s WALL (      32 calls)
     wfcinit:wfcr :      0.14s CPU      0.21s WALL (      32 calls)
     potinit      :      0.10s CPU      0.13s WALL (       1 calls)
     hinit0       :      0.27s CPU      0.28s WALL (       1 calls)

     Called by electrons:
     c_bands      :     16.33s CPU     16.61s WALL (      28 calls)
     sum_band     :      1.98s CPU      2.04s WALL (      28 calls)
     v_of_rho     :      0.11s CPU      0.15s WALL (      29 calls)
     v_h          :      0.04s CPU      0.07s WALL (      29 calls)
     v_xc         :      0.08s CPU      0.09s WALL (      31 calls)
     newd         :      0.27s CPU      0.31s WALL (      29 calls)
     PAW_pot      :      2.14s CPU      2.20s WALL (      29 calls)
     mix_rho      :      0.20s CPU      0.22s WALL (      28 calls)

     Called by c_bands:
     init_us_2    :      0.61s CPU      0.62s WALL (    1888 calls)
     cegterg      :     14.97s CPU     15.22s WALL (     896 calls)

     Called by sum_band:
     sum_band:wei :      0.00s CPU      0.00s WALL (      28 calls)
     sum_band:loo :      1.51s CPU      1.56s WALL (      28 calls)
     sum_band:buf :      0.28s CPU      0.31s WALL (     896 calls)
     sum_band:ini :      0.29s CPU      0.29s WALL (     896 calls)
     sum_band:cal :      0.02s CPU      0.02s WALL (     896 calls)
     sum_band:bec :      0.34s CPU      0.34s WALL (     896 calls)
     addusdens    :      0.30s CPU      0.30s WALL (      28 calls)
                                        0.30s GPU  (      28 calls)
     addusd:skk   :      0.01s CPU      0.01s WALL (      84 calls)
                                        0.01s GPU  (      84 calls)

     Called by *egterg:
     cdiaghg      :      6.54s CPU      6.69s WALL (    5738 calls)
                                        6.64s GPU  (    5738 calls)
     cegterg:over :      0.48s CPU      0.49s WALL (    4842 calls)
     cegterg:upda :      1.42s CPU      1.42s WALL (    4842 calls)
     cegterg:last :      0.19s CPU      0.20s WALL (    3094 calls)
     h_psi        :      4.13s CPU      4.36s WALL (    5770 calls)
     s_psi        :      1.47s CPU      1.49s WALL (    5770 calls)
     g_psi        :      0.09s CPU      0.09s WALL (    4842 calls)

     Called by h_psi:
     h_psi:calbec :      0.11s CPU      0.14s WALL (    5770 calls)
     vloc_psi     :      2.63s CPU      2.86s WALL (    5770 calls)
                                        2.81s GPU  (    5770 calls)
     add_vuspsi   :      1.23s CPU      1.26s WALL (    5770 calls)

     General routines
     calbec       :      0.12s CPU      0.15s WALL (    7210 calls)
     fft          :      0.04s CPU      0.06s WALL (     400 calls)
                                        0.02s GPU  (     371 calls)
     ffts         :      0.02s CPU      0.02s WALL (      57 calls)
                                        0.00s GPU  (      28 calls)
     fftw         :      0.19s CPU      1.70s WALL (   24620 calls)
                                        1.46s GPU  (   24620 calls)
     interpolate  :      0.08s CPU      0.11s WALL (      29 calls)
 
     Parallel routines

     PAW routines
     PAW_pot      :      2.14s CPU      2.20s WALL (      29 calls)
     PAW_symme    :      0.00s CPU      0.00s WALL (      57 calls)
 
     PWSCF        :     22.37s CPU     23.11s WALL

 
   This run was terminated on:  17: 6:27  29Nov2025            

=------------------------------------------------------------------------------=
   JOB DONE.
=------------------------------------------------------------------------------=
