
     Program PWSCF v.7.5 starts on 29Nov2025 at 17: 5:37 

     This program is part of the open-source Quantum ESPRESSO suite
     for quantum simulation of materials; please cite
         "P. Giannozzi et al., J. Phys.:Condens. Matter 21 395502 (2009);
         "P. Giannozzi et al., J. Phys.:Condens. Matter 29 465901 (2017);
         "P. Giannozzi et al., J. Chem. Phys. 152 154105 (2020);
          URL http://www.quantum-espresso.org", 
     in publications or presentations arising from this work. More details at
     http://www.quantum-espresso.org/quote

     Parallel version (MPI & OpenMP), running on       1 processor cores
     Number of MPI processes:                 1
     Threads/MPI process:                     1

     MPI processes distributed on     1 nodes
     1780303 MiB available memory on the printing compute node when the environment starts
 
     Reading input from espresso.pwi
Warning: card &CELL ignored
Warning: card &FCP ignored
Warning: card &RISM ignored

     Current dimensions of program PWSCF are:
     Max number of different atomic species (ntypx) = 10
     Max number of k-points (npk) =  40000
     Max angular momentum in pseudopotentials (lmaxx) =  4
     file O.pbesol-n-kjpaw_psl.0.1.UPF: wavefunction(s)  2P renormalized
     file Nb.pbesol-spn-kjpaw_psl.0.3.0.UPF: wavefunction(s)  4S 4P renormalized
     Message from routine setup:
     using ibrav=0 with symmetry is DISCOURAGED, use correct ibrav instead
 
     Subspace diagonalization in iterative solution of the eigenvalue problem:
     a serial algorithm will be used

 
     G-vector sticks info
     --------------------
     sticks:   dense  smooth     PW     G-vecs:    dense   smooth      PW
     Sum        2753    1655    489                91933    42709    6875
 
     Using Slab Decomposition
 


     bravais-lattice index     =            0
     lattice parameter (alat)  =      10.2882  a.u.
     unit-cell volume          =     680.4694 (a.u.)^3
     number of atoms/cell      =           10
     number of atomic types    =            3
     number of electrons       =        68.00
     number of Kohn-Sham states=           34
     kinetic-energy cutoff     =      60.0000  Ry
     charge density cutoff     =     400.0000  Ry
     scf convergence threshold =      1.0E-12
     mixing beta               =       0.7000
     number of iterations used =            8  plain     mixing
     Exchange-correlation= SLA  PW   PSX  PSC
                           (   1   4  10   8   0   0   0)

     GPU acceleration is ACTIVE.  1 visible GPUs per MPI rank


     GPU used by master process:

        Device Number: 0
        Device name: NVIDIA B200
        Compute capability : 100
        Ratio of single to double precision performance  : 16
        Memory Clock Rate (KHz): 3996000
        Memory Bus Width (bits): 7680
        Peak Memory Bandwidth (GB/s): ******

     celldm(1)=  10.288221  celldm(2)=   0.000000  celldm(3)=   0.000000
     celldm(4)=   0.000000  celldm(5)=   0.000000  celldm(6)=   0.000000

     crystal axes: (cart. coord. in units of alat)
               a(1) = (   0.461759   0.266596   0.845994 )  
               a(2) = (  -0.461759   0.266596   0.845994 )  
               a(3) = (   0.000000  -0.533193   0.845994 )  

     reciprocal axes: (cart. coord. in units 2 pi/alat)
               b(1) = (  1.082817  0.625165  0.394014 )  
               b(2) = ( -1.082817  0.625165  0.394014 )  
               b(3) = ( -0.000000 -1.250329  0.394014 )  


     PseudoPot. # 1 for Li read from file:
     /home/qhossain/SSSP_1.3.0_PBEsol_efficiency/li_pbesol_v1.4.uspp.F.UPF
     MD5 check sum: aa28d9aeea6a965f2dc95ee9517b3536
     Pseudo is Ultrasoft, Zval =  3.0
     Generated by new atomic code, or converted to UPF format
     Using radial grid of  751 points,  5 beta functions with: 
                l(1) =   0
                l(2) =   0
                l(3) =   0
                l(4) =   1
                l(5) =   1
     Q(r) pseudized with 10 coefficients,  rinner =    1.150   1.150   1.150


     PseudoPot. # 2 for O  read from file:
     /home/qhossain/SSSP_1.3.0_PBEsol_efficiency/O.pbesol-n-kjpaw_psl.0.1.UPF
     MD5 check sum: 81d73d1479e654e5638b0319f0d6c2c7
     Pseudo is Projector augmented-wave + core cor, Zval =  6.0
     Generated using "atomic" code by A. Dal Corso  v.6.0 svn rev. 13079
     Shape of augmentation charge: BESSEL
     Using radial grid of 1095 points,  4 beta functions with: 
                l(1) =   0
                l(2) =   0
                l(3) =   1
                l(4) =   1
     Q(r) pseudized with 0 coefficients 


     PseudoPot. # 3 for Nb read from file:
     /home/qhossain/SSSP_1.3.0_PBEsol_efficiency/Nb.pbesol-spn-kjpaw_psl.0.3.0.UPF
     MD5 check sum: 3501bca1474143575298708b2d32ca28
     Pseudo is Projector augmented-wave + core cor, Zval = 13.0
     Generated using "atomic" code by A. Dal Corso  v.6.0 svn rev. 13079
     Shape of augmentation charge: PSQ
     Using radial grid of 1227 points,  6 beta functions with: 
                l(1) =   0
                l(2) =   0
                l(3) =   1
                l(4) =   1
                l(5) =   2
                l(6) =   2
     Q(r) pseudized with 0 coefficients 


     atomic species   valence    mass     pseudopotential
     Li                3.00     6.94000     Li( 1.00)
     O                 6.00    15.99900     O ( 1.00)
     Nb               13.00    92.90637     Nb( 1.00)

      6 Sym. Ops. (no inversion) found ( 3 have fractional translation)


                                    s                        frac. trans.

      isym =  1     identity                                     

 cryst.   s( 1) = (     1          0          0      )
                  (     0          1          0      )
                  (     0          0          1      )

 cart.    s( 1) = (  1.0000000 -0.0000000  0.0000000 )
                  ( -0.0000000  1.0000000 -0.0000000 )
                  ( -0.0000000  0.0000000  1.0000000 )


      isym =  2     120 deg rotation - cryst. axis [0,0,1]       

 cryst.   s( 2) = (     0          1          0      )
                  (     0          0          1      )
                  (     1          0          0      )

 cart.    s( 2) = ( -0.5000000 -0.8660254 -0.0000000 )
                  (  0.8660254 -0.5000000 -0.0000000 )
                  ( -0.0000000 -0.0000000  1.0000000 )


      isym =  3     120 deg rotation - cryst. axis [0,0,-1]      

 cryst.   s( 3) = (     0          0          1      )
                  (     1          0          0      )
                  (     0          1          0      )

 cart.    s( 3) = ( -0.5000000  0.8660254  0.0000000 )
                  ( -0.8660254 -0.5000000 -0.0000000 )
                  (  0.0000000  0.0000000  1.0000000 )


      isym =  4     inv. 180 deg rotation - cart. axis [1,0,0]   

 cryst.   s( 4) = (     0          1          0      )    f =(  0.5000000 )
                  (     1          0          0      )       (  0.5000000 )
                  (     0          0          1      )       (  0.5000000 )

 cart.    s( 4) = ( -1.0000000 -0.0000000  0.0000000 )    f =(  0.0000000 )
                  (  0.0000000  1.0000000 -0.0000000 )       ( -0.0000000 )
                  ( -0.0000000  0.0000000  1.0000000 )       (  1.2689905 )


      isym =  5     inv. 180 deg rotation - cryst. axis [0,1,0]  

 cryst.   s( 5) = (     1          0          0      )    f =(  0.5000000 )
                  (     0          0          1      )       (  0.5000000 )
                  (     0          1          0      )       (  0.5000000 )

 cart.    s( 5) = (  0.5000000  0.8660254  0.0000000 )    f =(  0.0000000 )
                  (  0.8660254 -0.5000000 -0.0000000 )       ( -0.0000000 )
                  ( -0.0000000  0.0000000  1.0000000 )       (  1.2689905 )


      isym =  6     inv. 180 deg rotation - cryst. axis [1,1,0]  

 cryst.   s( 6) = (     0          0          1      )    f =(  0.5000000 )
                  (     0          1          0      )       (  0.5000000 )
                  (     1          0          0      )       (  0.5000000 )

 cart.    s( 6) = (  0.5000000 -0.8660254 -0.0000000 )    f =( -0.0000000 )
                  ( -0.8660254 -0.5000000 -0.0000000 )       ( -0.0000000 )
                  (  0.0000000 -0.0000000  1.0000000 )       (  1.2689905 )


   Cartesian axes

     site n.     atom                  positions (alat units)
         1        Li     tau(   1) = (  -0.0000000  -0.0000000   1.9883278  )
         2        Li     tau(   2) = (   0.0000000  -0.0000000   0.7193373  )
         3        O      tau(   3) = (  -0.2959785  -0.0377487   1.4367613  )
         4        O      tau(   4) = (   0.1806806  -0.2374505   1.4367613  )
         5        O      tau(   5) = (   0.1152979   0.2751992   1.4367613  )
         6        O      tau(   6) = (   0.2810780   0.0291459   1.0137644  )
         7        O      tau(   7) = (  -0.1657801   0.2288478   1.0137644  )
         8        O      tau(   8) = (  -0.1152979  -0.2579937   1.0137644  )
         9        Nb     tau(   9) = (  -0.0000000  -0.0000000   1.2717217  )
        10        Nb     tau(  10) = (  -0.0000000  -0.0000000   0.0027312  )

   Crystallographic axes

     site n.     atom                  positions (cryst. coord.)
         1        Li     tau(   1) = (  0.7834289  0.7834289  0.7834289  )
         2        Li     tau(   2) = (  0.2834289  0.2834289  0.2834289  )
         3        O      tau(   3) = (  0.2220144  0.8629954  0.6133023  )
         4        O      tau(   4) = (  0.6133023  0.2220144  0.8629954  )
         5        O      tau(   5) = (  0.8629954  0.6133023  0.2220144  )
         6        O      tau(   6) = (  0.7220144  0.1133023  0.3629954  )
         7        O      tau(   7) = (  0.3629954  0.7220144  0.1133023  )
         8        O      tau(   8) = (  0.1133023  0.3629954  0.7220144  )
         9        Nb     tau(   9) = (  0.5010761  0.5010761  0.5010761  )
        10        Nb     tau(  10) = (  0.0010761  0.0010761  0.0010761  )

     number of k points=    32
                       cart. coord. in units 2pi/alat
        k(    1) = (   0.0000000   0.0000000   0.0000000), wk =   0.0092593
        k(    2) = (  -0.0000000  -0.2083882   0.0656690), wk =   0.0555556
        k(    3) = (  -0.0000000  -0.4167764   0.1313380), wk =   0.0555556
        k(    4) = (   0.0000000   0.6251646  -0.1970070), wk =   0.0277778
        k(    5) = (  -0.1804695  -0.1041941   0.1313380), wk =   0.0555556
        k(    6) = (  -0.1804695  -0.3125823   0.1970070), wk =   0.1111111
        k(    7) = (  -0.1804695   0.7293587  -0.1313380), wk =   0.1111111
        k(    8) = (  -0.1804695   0.5209705  -0.0656690), wk =   0.1111111
        k(    9) = (  -0.1804695   0.3125823   0.0000000), wk =   0.0555556
        k(   10) = (  -0.3609390  -0.2083882   0.2626760), wk =   0.0555556
        k(   11) = (  -0.3609390   0.8335528  -0.0656690), wk =   0.1111111
        k(   12) = (  -0.3609390   0.6251646   0.0000000), wk =   0.0555556
        k(   13) = (   0.5414084   0.3125823  -0.3940140), wk =   0.0277778
        k(   14) = (  -0.0000000  -0.0000000   0.1970070), wk =   0.0185185
        k(   15) = (  -0.0000000  -0.2083882   0.2626760), wk =   0.0555556
        k(   16) = (  -0.0000000   0.8335528  -0.0656690), wk =   0.0555556
        k(   17) = (  -0.0000000   0.6251646   0.0000000), wk =   0.0555556
        k(   18) = (  -0.0000000   0.4167764   0.0656690), wk =   0.0555556
        k(   19) = (  -0.1804695  -0.1041941   0.3283450), wk =   0.0555556
        k(   20) = (  -0.1804695   0.9377469   0.0000000), wk =   0.1111111
        k(   21) = (  -0.1804695   0.7293587   0.0656690), wk =   0.1111111
        k(   22) = (  -0.1804695   0.5209705   0.1313380), wk =   0.1111111
        k(   23) = (   0.7218779   0.4167764  -0.3283450), wk =   0.0555556
        k(   24) = (   0.7218779   0.2083882  -0.2626760), wk =   0.1111111
        k(   25) = (   0.7218779  -0.0000000  -0.1970070), wk =   0.0555556
        k(   26) = (   0.5414084   0.3125823  -0.1970070), wk =   0.0555556
        k(   27) = (  -0.0000000  -0.0000000   0.3940140), wk =   0.0185185
        k(   28) = (  -0.0000000   1.0419410   0.0656690), wk =   0.0555556
        k(   29) = (  -0.0000000   0.8335528   0.1313380), wk =   0.0555556
        k(   30) = (   0.9023474   0.5209705  -0.2626760), wk =   0.0555556
        k(   31) = (   0.9023474   0.3125823  -0.1970070), wk =   0.0555556
        k(   32) = (   0.0000000   0.0000000  -0.5910210), wk =   0.0092593

                       cryst. coord.
        k(    1) = (   0.0000000   0.0000000   0.0000000), wk =   0.0092593
        k(    2) = (   0.0000000   0.0000000   0.1666667), wk =   0.0555556
        k(    3) = (   0.0000000   0.0000000   0.3333333), wk =   0.0555556
        k(    4) = (  -0.0000000  -0.0000000  -0.5000000), wk =   0.0277778
        k(    5) = (   0.0000000   0.1666667   0.1666667), wk =   0.0555556
        k(    6) = (   0.0000000   0.1666667   0.3333333), wk =   0.1111111
        k(    7) = (   0.0000000   0.1666667  -0.5000000), wk =   0.1111111
        k(    8) = (   0.0000000   0.1666667  -0.3333333), wk =   0.1111111
        k(    9) = (   0.0000000   0.1666667  -0.1666667), wk =   0.0555556
        k(   10) = (   0.0000000   0.3333333   0.3333333), wk =   0.0555556
        k(   11) = (  -0.0000000   0.3333333  -0.5000000), wk =   0.1111111
        k(   12) = (   0.0000000   0.3333333  -0.3333333), wk =   0.0555556
        k(   13) = (  -0.0000000  -0.5000000  -0.5000000), wk =   0.0277778
        k(   14) = (   0.1666667   0.1666667   0.1666667), wk =   0.0185185
        k(   15) = (   0.1666667   0.1666667   0.3333333), wk =   0.0555556
        k(   16) = (   0.1666667   0.1666667  -0.5000000), wk =   0.0555556
        k(   17) = (   0.1666667   0.1666667  -0.3333333), wk =   0.0555556
        k(   18) = (   0.1666667   0.1666667  -0.1666667), wk =   0.0555556
        k(   19) = (   0.1666667   0.3333333   0.3333333), wk =   0.0555556
        k(   20) = (   0.1666667   0.3333333  -0.5000000), wk =   0.1111111
        k(   21) = (   0.1666667   0.3333333  -0.3333333), wk =   0.1111111
        k(   22) = (   0.1666667   0.3333333  -0.1666667), wk =   0.1111111
        k(   23) = (   0.1666667  -0.5000000  -0.5000000), wk =   0.0555556
        k(   24) = (   0.1666667  -0.5000000  -0.3333333), wk =   0.1111111
        k(   25) = (   0.1666667  -0.5000000  -0.1666667), wk =   0.0555556
        k(   26) = (   0.1666667  -0.3333333  -0.3333333), wk =   0.0555556
        k(   27) = (   0.3333333   0.3333333   0.3333333), wk =   0.0185185
        k(   28) = (   0.3333333   0.3333333  -0.5000000), wk =   0.0555556
        k(   29) = (   0.3333333   0.3333333  -0.3333333), wk =   0.0555556
        k(   30) = (   0.3333333  -0.5000000  -0.5000000), wk =   0.0555556
        k(   31) = (   0.3333333  -0.5000000  -0.3333333), wk =   0.0555556
        k(   32) = (  -0.5000000  -0.5000000  -0.5000000), wk =   0.0092593

     Dense  grid:    91933 G-vectors     FFT dimensions: (  72,  72,  72)

     Smooth grid:    42709 G-vectors     FFT dimensions: (  54,  54,  54)

     Dynamical RAM for                 wfc:       2.77 MB

     Dynamical RAM for     wfc (w. buffer):      91.44 MB

     Dynamical RAM for           str. fact:       4.21 MB

     Dynamical RAM for           local pot:       0.00 MB

     Dynamical RAM for          nlocal pot:       8.31 MB

     Dynamical RAM for                qrad:       4.82 MB

     Dynamical RAM for          rho,v,vnew:      12.75 MB

     Dynamical RAM for               rhoin:       4.25 MB

     Dynamical RAM for            rho*nmix:      22.44 MB

     Dynamical RAM for           G-vectors:       5.59 MB

     Dynamical RAM for          h,s,v(r/c):       0.21 MB

     Dynamical RAM for          <psi|beta>:       0.05 MB

     Dynamical RAM for                 psi:       5.54 MB

     Dynamical RAM for                hpsi:       5.54 MB

     Dynamical RAM for                spsi:       5.54 MB

     Dynamical RAM for      wfcinit/wfcrot:       5.57 MB

     Dynamical RAM for           addusdens:     269.33 MB

     Dynamical RAM for          addusforce:     284.09 MB

     Dynamical RAM for         addusstress:     281.96 MB

     Estimated static dynamical RAM per process >     151.21 MB

     Estimated max dynamical RAM per process >     457.75 MB

     Check: negative core charge=   -0.000005

     Initial potential from superposition of free atoms

     starting charge      67.0945, renormalised to      68.0000
     Starting wfcs are   54 randomized atomic wfcs
     Checking if some PAW data can be deallocated... 

     total cpu time spent up to now is        1.1 secs

     per-process dynamical memory:   550.2 Mb

     Self-consistent Calculation
[tb_dev] Currently allocated     1.86E+00 Mbytes, locked:    0 /   3
[tb_pin] Currently allocated     0.00E+00 Mbytes, locked:    0 /   0

     iteration #  1     ecut=    60.00 Ry     beta= 0.70
     Davidson diagonalization with overlap

---- Real-time Memory Report at c_bands before calling an iterative solver
           978 MiB given to the printing process from OS
           537 MiB allocation reported by mallinfo(arena+hblkhd)
       1779930 MiB available memory on the node where the printing process lives
     GPU memory used/free/total (MiB): 2251 / 180390 / 182642
------------------
     ethr =  1.00E-02,  avg # of iterations =  1.4

     total cpu time spent up to now is        1.6 secs

     total energy              =    -934.57251620 Ry
     estimated scf accuracy    <       4.22501756 Ry
[tb_dev] Currently allocated     0.00E+00 Mbytes, locked:    0 /   0
[tb_pin] Currently allocated     0.00E+00 Mbytes, locked:    0 /   0

     iteration #  2     ecut=    60.00 Ry     beta= 0.70
     Davidson diagonalization with overlap

---- Real-time Memory Report at c_bands before calling an iterative solver
          1029 MiB given to the printing process from OS
           610 MiB allocation reported by mallinfo(arena+hblkhd)
       1779959 MiB available memory on the node where the printing process lives
     GPU memory used/free/total (MiB): 2251 / 180390 / 182642
------------------
     ethr =  6.21E-03,  avg # of iterations =  7.7

     total cpu time spent up to now is        2.6 secs

     total energy              =    -934.50183228 Ry
     estimated scf accuracy    <      12.11692555 Ry
[tb_dev] Currently allocated     0.00E+00 Mbytes, locked:    0 /   0
[tb_pin] Currently allocated     0.00E+00 Mbytes, locked:    0 /   0

     iteration #  3     ecut=    60.00 Ry     beta= 0.70
     Davidson diagonalization with overlap

---- Real-time Memory Report at c_bands before calling an iterative solver
          1036 MiB given to the printing process from OS
           614 MiB allocation reported by mallinfo(arena+hblkhd)
       1779802 MiB available memory on the node where the printing process lives
     GPU memory used/free/total (MiB): 2253 / 180388 / 182642
------------------
     ethr =  6.21E-03,  avg # of iterations =  5.0

     total cpu time spent up to now is        3.4 secs

     total energy              =    -936.65843431 Ry
     estimated scf accuracy    <       0.06781883 Ry
[tb_dev] Currently allocated     0.00E+00 Mbytes, locked:    0 /   0
[tb_pin] Currently allocated     0.00E+00 Mbytes, locked:    0 /   0

     iteration #  4     ecut=    60.00 Ry     beta= 0.70
     Davidson diagonalization with overlap

---- Real-time Memory Report at c_bands before calling an iterative solver
          1038 MiB given to the printing process from OS
           616 MiB allocation reported by mallinfo(arena+hblkhd)
       1779860 MiB available memory on the node where the printing process lives
     GPU memory used/free/total (MiB): 2253 / 180388 / 182642
------------------
     ethr =  9.97E-05,  avg # of iterations =  8.7

     total cpu time spent up to now is        4.4 secs

     total energy              =    -936.72453369 Ry
     estimated scf accuracy    <       0.28722036 Ry
[tb_dev] Currently allocated     0.00E+00 Mbytes, locked:    0 /   0
[tb_pin] Currently allocated     0.00E+00 Mbytes, locked:    0 /   0

     iteration #  5     ecut=    60.00 Ry     beta= 0.70
     Davidson diagonalization with overlap

---- Real-time Memory Report at c_bands before calling an iterative solver
          1040 MiB given to the printing process from OS
           618 MiB allocation reported by mallinfo(arena+hblkhd)
       1779839 MiB available memory on the node where the printing process lives
     GPU memory used/free/total (MiB): 2253 / 180388 / 182642
------------------
     ethr =  9.97E-05,  avg # of iterations =  6.5

     total cpu time spent up to now is        5.3 secs

     total energy              =    -936.82068509 Ry
     estimated scf accuracy    <       0.08930626 Ry
[tb_dev] Currently allocated     0.00E+00 Mbytes, locked:    0 /   0
[tb_pin] Currently allocated     0.00E+00 Mbytes, locked:    0 /   0

     iteration #  6     ecut=    60.00 Ry     beta= 0.70
     Davidson diagonalization with overlap

---- Real-time Memory Report at c_bands before calling an iterative solver
          1042 MiB given to the printing process from OS
           620 MiB allocation reported by mallinfo(arena+hblkhd)
       1779375 MiB available memory on the node where the printing process lives
     GPU memory used/free/total (MiB): 2253 / 180388 / 182642
------------------
     ethr =  9.97E-05,  avg # of iterations =  2.1

     total cpu time spent up to now is        5.8 secs

     total energy              =    -936.81359101 Ry
     estimated scf accuracy    <       0.02331414 Ry
[tb_dev] Currently allocated     0.00E+00 Mbytes, locked:    0 /   0
[tb_pin] Currently allocated     0.00E+00 Mbytes, locked:    0 /   0

     iteration #  7     ecut=    60.00 Ry     beta= 0.70
     Davidson diagonalization with overlap

---- Real-time Memory Report at c_bands before calling an iterative solver
          1044 MiB given to the printing process from OS
           621 MiB allocation reported by mallinfo(arena+hblkhd)
       1779353 MiB available memory on the node where the printing process lives
     GPU memory used/free/total (MiB): 2253 / 180388 / 182642
------------------
     ethr =  3.43E-05,  avg # of iterations =  5.8

     total cpu time spent up to now is        6.6 secs

     total energy              =    -936.82676355 Ry
     estimated scf accuracy    <       0.01287612 Ry
[tb_dev] Currently allocated     0.00E+00 Mbytes, locked:    0 /   0
[tb_pin] Currently allocated     0.00E+00 Mbytes, locked:    0 /   0

     iteration #  8     ecut=    60.00 Ry     beta= 0.70
     Davidson diagonalization with overlap

---- Real-time Memory Report at c_bands before calling an iterative solver
          1045 MiB given to the printing process from OS
           622 MiB allocation reported by mallinfo(arena+hblkhd)
       1779456 MiB available memory on the node where the printing process lives
     GPU memory used/free/total (MiB): 2253 / 180388 / 182642
------------------
     ethr =  1.89E-05,  avg # of iterations =  1.2

     total cpu time spent up to now is        7.0 secs

     total energy              =    -936.82587500 Ry
     estimated scf accuracy    <       0.00522948 Ry
[tb_dev] Currently allocated     0.00E+00 Mbytes, locked:    0 /   0
[tb_pin] Currently allocated     0.00E+00 Mbytes, locked:    0 /   0

     iteration #  9     ecut=    60.00 Ry     beta= 0.70
     Davidson diagonalization with overlap

---- Real-time Memory Report at c_bands before calling an iterative solver
          1047 MiB given to the printing process from OS
           624 MiB allocation reported by mallinfo(arena+hblkhd)
       1779376 MiB available memory on the node where the printing process lives
     GPU memory used/free/total (MiB): 2253 / 180388 / 182642
------------------
     ethr =  7.69E-06,  avg # of iterations =  4.4

     total cpu time spent up to now is        7.6 secs

     total energy              =    -936.82643891 Ry
     estimated scf accuracy    <       0.00072458 Ry
[tb_dev] Currently allocated     0.00E+00 Mbytes, locked:    0 /   0
[tb_pin] Currently allocated     0.00E+00 Mbytes, locked:    0 /   0

     iteration # 10     ecut=    60.00 Ry     beta= 0.70
     Davidson diagonalization with overlap

---- Real-time Memory Report at c_bands before calling an iterative solver
          1048 MiB given to the printing process from OS
           626 MiB allocation reported by mallinfo(arena+hblkhd)
       1779587 MiB available memory on the node where the printing process lives
     GPU memory used/free/total (MiB): 2253 / 180388 / 182642
------------------
     ethr =  1.07E-06,  avg # of iterations =  5.4

     total cpu time spent up to now is        8.3 secs

     total energy              =    -936.82685190 Ry
     estimated scf accuracy    <       0.00001738 Ry
[tb_dev] Currently allocated     0.00E+00 Mbytes, locked:    0 /   0
[tb_pin] Currently allocated     0.00E+00 Mbytes, locked:    0 /   0

     iteration # 11     ecut=    60.00 Ry     beta= 0.70
     Davidson diagonalization with overlap

---- Real-time Memory Report at c_bands before calling an iterative solver
          1048 MiB given to the printing process from OS
           616 MiB allocation reported by mallinfo(arena+hblkhd)
       1779632 MiB available memory on the node where the printing process lives
     GPU memory used/free/total (MiB): 2253 / 180388 / 182642
------------------
     ethr =  2.56E-08,  avg # of iterations =  6.7

     total cpu time spent up to now is        9.2 secs

     total energy              =    -936.82685670 Ry
     estimated scf accuracy    <       0.00007193 Ry
[tb_dev] Currently allocated     0.00E+00 Mbytes, locked:    0 /   0
[tb_pin] Currently allocated     0.00E+00 Mbytes, locked:    0 /   0

     iteration # 12     ecut=    60.00 Ry     beta= 0.70
     Davidson diagonalization with overlap

---- Real-time Memory Report at c_bands before calling an iterative solver
          1048 MiB given to the printing process from OS
           626 MiB allocation reported by mallinfo(arena+hblkhd)
       1779304 MiB available memory on the node where the printing process lives
     GPU memory used/free/total (MiB): 2253 / 180388 / 182642
------------------
     ethr =  2.56E-08,  avg # of iterations =  2.1

     total cpu time spent up to now is        9.7 secs

     total energy              =    -936.82684586 Ry
     estimated scf accuracy    <       0.00003224 Ry
[tb_dev] Currently allocated     0.00E+00 Mbytes, locked:    0 /   0
[tb_pin] Currently allocated     0.00E+00 Mbytes, locked:    0 /   0

     iteration # 13     ecut=    60.00 Ry     beta= 0.70
     Davidson diagonalization with overlap

---- Real-time Memory Report at c_bands before calling an iterative solver
          1049 MiB given to the printing process from OS
           626 MiB allocation reported by mallinfo(arena+hblkhd)
       1779290 MiB available memory on the node where the printing process lives
     GPU memory used/free/total (MiB): 2253 / 180388 / 182642
------------------
     ethr =  2.56E-08,  avg # of iterations =  5.6

     total cpu time spent up to now is       10.4 secs

     total energy              =    -936.82685431 Ry
     estimated scf accuracy    <       0.00000016 Ry
[tb_dev] Currently allocated     0.00E+00 Mbytes, locked:    0 /   0
[tb_pin] Currently allocated     0.00E+00 Mbytes, locked:    0 /   0

     iteration # 14     ecut=    60.00 Ry     beta= 0.70
     Davidson diagonalization with overlap

---- Real-time Memory Report at c_bands before calling an iterative solver
          1049 MiB given to the printing process from OS
           626 MiB allocation reported by mallinfo(arena+hblkhd)
       1779522 MiB available memory on the node where the printing process lives
     GPU memory used/free/total (MiB): 2253 / 180388 / 182642
------------------
     ethr =  2.28E-10,  avg # of iterations =  9.1

     total cpu time spent up to now is       11.5 secs

     total energy              =    -936.82685484 Ry
     estimated scf accuracy    <       0.00000156 Ry
[tb_dev] Currently allocated     0.00E+00 Mbytes, locked:    0 /   0
[tb_pin] Currently allocated     0.00E+00 Mbytes, locked:    0 /   0

     iteration # 15     ecut=    60.00 Ry     beta= 0.70
     Davidson diagonalization with overlap

---- Real-time Memory Report at c_bands before calling an iterative solver
          1049 MiB given to the printing process from OS
           626 MiB allocation reported by mallinfo(arena+hblkhd)
       1779690 MiB available memory on the node where the printing process lives
     GPU memory used/free/total (MiB): 2253 / 180388 / 182642
------------------
     ethr =  2.28E-10,  avg # of iterations =  1.0

     total cpu time spent up to now is       11.9 secs

     total energy              =    -936.82685449 Ry
     estimated scf accuracy    <       0.00000143 Ry
[tb_dev] Currently allocated     0.00E+00 Mbytes, locked:    0 /   0
[tb_pin] Currently allocated     0.00E+00 Mbytes, locked:    0 /   0

     iteration # 16     ecut=    60.00 Ry     beta= 0.70
     Davidson diagonalization with overlap

---- Real-time Memory Report at c_bands before calling an iterative solver
          1049 MiB given to the printing process from OS
           626 MiB allocation reported by mallinfo(arena+hblkhd)
       1779687 MiB available memory on the node where the printing process lives
     GPU memory used/free/total (MiB): 2253 / 180388 / 182642
------------------
     ethr =  2.28E-10,  avg # of iterations =  3.6

     total cpu time spent up to now is       12.6 secs

     total energy              =    -936.82685446 Ry
     estimated scf accuracy    <       0.00000042 Ry
[tb_dev] Currently allocated     0.00E+00 Mbytes, locked:    0 /   0
[tb_pin] Currently allocated     0.00E+00 Mbytes, locked:    0 /   0

     iteration # 17     ecut=    60.00 Ry     beta= 0.70
     Davidson diagonalization with overlap

---- Real-time Memory Report at c_bands before calling an iterative solver
          1049 MiB given to the printing process from OS
           626 MiB allocation reported by mallinfo(arena+hblkhd)
       1779704 MiB available memory on the node where the printing process lives
     GPU memory used/free/total (MiB): 2253 / 180388 / 182642
------------------
     ethr =  2.28E-10,  avg # of iterations =  4.4

     total cpu time spent up to now is       13.2 secs

     total energy              =    -936.82685451 Ry
     estimated scf accuracy    <       0.00000006 Ry
[tb_dev] Currently allocated     0.00E+00 Mbytes, locked:    0 /   0
[tb_pin] Currently allocated     0.00E+00 Mbytes, locked:    0 /   0

     iteration # 18     ecut=    60.00 Ry     beta= 0.70
     Davidson diagonalization with overlap

---- Real-time Memory Report at c_bands before calling an iterative solver
          1049 MiB given to the printing process from OS
           626 MiB allocation reported by mallinfo(arena+hblkhd)
       1779704 MiB available memory on the node where the printing process lives
     GPU memory used/free/total (MiB): 2253 / 180388 / 182642
------------------
     ethr =  8.35E-11,  avg # of iterations =  1.4

     total cpu time spent up to now is       13.7 secs

     total energy              =    -936.82685450 Ry
     estimated scf accuracy    <       0.00000005 Ry
[tb_dev] Currently allocated     0.00E+00 Mbytes, locked:    0 /   0
[tb_pin] Currently allocated     0.00E+00 Mbytes, locked:    0 /   0

     iteration # 19     ecut=    60.00 Ry     beta= 0.70
     Davidson diagonalization with overlap

---- Real-time Memory Report at c_bands before calling an iterative solver
          1049 MiB given to the printing process from OS
           626 MiB allocation reported by mallinfo(arena+hblkhd)
       1779742 MiB available memory on the node where the printing process lives
     GPU memory used/free/total (MiB): 2253 / 180388 / 182642
------------------
     ethr =  7.28E-11,  avg # of iterations =  4.8

     total cpu time spent up to now is       14.3 secs

     total energy              =    -936.82685450 Ry
     estimated scf accuracy    <          4.6E-09 Ry
[tb_dev] Currently allocated     0.00E+00 Mbytes, locked:    0 /   0
[tb_pin] Currently allocated     0.00E+00 Mbytes, locked:    0 /   0

     iteration # 20     ecut=    60.00 Ry     beta= 0.70
     Davidson diagonalization with overlap

---- Real-time Memory Report at c_bands before calling an iterative solver
          1049 MiB given to the printing process from OS
           626 MiB allocation reported by mallinfo(arena+hblkhd)
       1779749 MiB available memory on the node where the printing process lives
     GPU memory used/free/total (MiB): 2253 / 180388 / 182642
------------------
     ethr =  6.70E-12,  avg # of iterations =  5.3

     total cpu time spent up to now is       15.1 secs

     total energy              =    -936.82685451 Ry
     estimated scf accuracy    <          1.5E-10 Ry
[tb_dev] Currently allocated     0.00E+00 Mbytes, locked:    0 /   0
[tb_pin] Currently allocated     0.00E+00 Mbytes, locked:    0 /   0

     iteration # 21     ecut=    60.00 Ry     beta= 0.70
     Davidson diagonalization with overlap

---- Real-time Memory Report at c_bands before calling an iterative solver
          1049 MiB given to the printing process from OS
           626 MiB allocation reported by mallinfo(arena+hblkhd)
       1779682 MiB available memory on the node where the printing process lives
     GPU memory used/free/total (MiB): 2253 / 180388 / 182642
------------------
     ethr =  2.15E-13,  avg # of iterations =  7.1

     total cpu time spent up to now is       16.0 secs

     total energy              =    -936.82685451 Ry
     estimated scf accuracy    <          1.2E-10 Ry
[tb_dev] Currently allocated     0.00E+00 Mbytes, locked:    0 /   0
[tb_pin] Currently allocated     0.00E+00 Mbytes, locked:    0 /   0

     iteration # 22     ecut=    60.00 Ry     beta= 0.70
     Davidson diagonalization with overlap

---- Real-time Memory Report at c_bands before calling an iterative solver
          1049 MiB given to the printing process from OS
           626 MiB allocation reported by mallinfo(arena+hblkhd)
       1779715 MiB available memory on the node where the printing process lives
     GPU memory used/free/total (MiB): 2253 / 180388 / 182642
------------------
     ethr =  1.76E-13,  avg # of iterations =  3.3

     total cpu time spent up to now is       16.6 secs

     total energy              =    -936.82685451 Ry
     estimated scf accuracy    <          2.1E-12 Ry
[tb_dev] Currently allocated     0.00E+00 Mbytes, locked:    0 /   0
[tb_pin] Currently allocated     0.00E+00 Mbytes, locked:    0 /   0

     iteration # 23     ecut=    60.00 Ry     beta= 0.70
     Davidson diagonalization with overlap

---- Real-time Memory Report at c_bands before calling an iterative solver
          1049 MiB given to the printing process from OS
           626 MiB allocation reported by mallinfo(arena+hblkhd)
       1779614 MiB available memory on the node where the printing process lives
     GPU memory used/free/total (MiB): 2253 / 180388 / 182642
------------------
     ethr =  1.00E-13,  avg # of iterations =  5.9

     total cpu time spent up to now is       17.4 secs

     total energy              =    -936.82685451 Ry
     estimated scf accuracy    <          3.9E-10 Ry
[tb_dev] Currently allocated     0.00E+00 Mbytes, locked:    0 /   0
[tb_pin] Currently allocated     0.00E+00 Mbytes, locked:    0 /   0

     iteration # 24     ecut=    60.00 Ry     beta= 0.70
     Davidson diagonalization with overlap

---- Real-time Memory Report at c_bands before calling an iterative solver
          1049 MiB given to the printing process from OS
           626 MiB allocation reported by mallinfo(arena+hblkhd)
       1779745 MiB available memory on the node where the printing process lives
     GPU memory used/free/total (MiB): 2253 / 180388 / 182642
------------------
     ethr =  1.00E-13,  avg # of iterations =  3.0

     total cpu time spent up to now is       17.9 secs

     total energy              =    -936.82685451 Ry
     estimated scf accuracy    <          1.7E-10 Ry
[tb_dev] Currently allocated     0.00E+00 Mbytes, locked:    0 /   0
[tb_pin] Currently allocated     0.00E+00 Mbytes, locked:    0 /   0

     iteration # 25     ecut=    60.00 Ry     beta= 0.70
     Davidson diagonalization with overlap

---- Real-time Memory Report at c_bands before calling an iterative solver
          1049 MiB given to the printing process from OS
           626 MiB allocation reported by mallinfo(arena+hblkhd)
       1779739 MiB available memory on the node where the printing process lives
     GPU memory used/free/total (MiB): 2253 / 180388 / 182642
------------------
     ethr =  1.00E-13,  avg # of iterations =  3.8

     total cpu time spent up to now is       18.5 secs

     total energy              =    -936.82685451 Ry
     estimated scf accuracy    <          8.0E-11 Ry
[tb_dev] Currently allocated     0.00E+00 Mbytes, locked:    0 /   0
[tb_pin] Currently allocated     0.00E+00 Mbytes, locked:    0 /   0

     iteration # 26     ecut=    60.00 Ry     beta= 0.70
     Davidson diagonalization with overlap

---- Real-time Memory Report at c_bands before calling an iterative solver
          1049 MiB given to the printing process from OS
           626 MiB allocation reported by mallinfo(arena+hblkhd)
       1779716 MiB available memory on the node where the printing process lives
     GPU memory used/free/total (MiB): 2253 / 180388 / 182642
------------------
     ethr =  1.00E-13,  avg # of iterations =  2.2

     total cpu time spent up to now is       19.0 secs

     total energy              =    -936.82685451 Ry
     estimated scf accuracy    <          4.6E-11 Ry
[tb_dev] Currently allocated     0.00E+00 Mbytes, locked:    0 /   0
[tb_pin] Currently allocated     0.00E+00 Mbytes, locked:    0 /   0

     iteration # 27     ecut=    60.00 Ry     beta= 0.70
     Davidson diagonalization with overlap

---- Real-time Memory Report at c_bands before calling an iterative solver
          1049 MiB given to the printing process from OS
           626 MiB allocation reported by mallinfo(arena+hblkhd)
       1779653 MiB available memory on the node where the printing process lives
     GPU memory used/free/total (MiB): 2253 / 180388 / 182642
------------------
     ethr =  1.00E-13,  avg # of iterations =  4.7

     total cpu time spent up to now is       19.7 secs

     End of self-consistent calculation

          k = 0.0000 0.0000 0.0000 (  5355 PWs)   bands (ev):

   -45.9665 -45.9460 -33.8960 -33.8922 -22.4359 -22.4359 -22.3538 -22.2384
   -22.2384 -22.1076  -9.2042  -8.5142  -8.5142  -7.4203  -7.1490  -7.1490
     3.1208   3.1208   3.2965   3.4124   3.4124   4.4825   5.7110   5.7899
     5.7899   6.5673   6.9334   6.9334   7.0625   7.2191   7.2191   7.3869
     7.8690   7.8690

     occupation numbers 
     1.0000   1.0000   1.0000   1.0000   1.0000   1.0000   1.0000   1.0000
     1.0000   1.0000   1.0000   1.0000   1.0000   1.0000   1.0000   1.0000
     1.0000   1.0000   1.0000   1.0000   1.0000   1.0000   1.0000   1.0000
     1.0000   1.0000   1.0000   1.0000   1.0000   1.0000   1.0000   1.0000
     1.0000   1.0000

          k =-0.0000-0.2084 0.0657 (  5336 PWs)   bands (ev):

   -45.9651 -45.9473 -33.8958 -33.8925 -22.4255 -22.4235 -22.3370 -22.2540
   -22.2526 -22.1241  -9.0800  -8.4406  -8.4387  -7.5103  -7.2743  -7.2584
     3.0584   3.1725   3.4538   3.7035   3.7075   4.5294   5.3817   5.4772
     5.5882   6.5488   6.6974   6.9629   6.9706   7.3121   7.4045   7.4587
     7.7045   7.7768

     occupation numbers 
     1.0000   1.0000   1.0000   1.0000   1.0000   1.0000   1.0000   1.0000
     1.0000   1.0000   1.0000   1.0000   1.0000   1.0000   1.0000   1.0000
     1.0000   1.0000   1.0000   1.0000   1.0000   1.0000   1.0000   1.0000
     1.0000   1.0000   1.0000   1.0000   1.0000   1.0000   1.0000   1.0000
     1.0000   1.0000

          k =-0.0000-0.4168 0.1313 (  5346 PWs)   bands (ev):

   -45.9613 -45.9511 -33.8952 -33.8932 -22.3945 -22.3892 -22.2950 -22.2924
   -22.2898 -22.1691  -8.7384  -8.2404  -8.2296  -7.7772  -7.5831  -7.5366
     3.2365   3.4187   3.7580   4.2699   4.3086   4.6287   4.6500   4.9977
     5.2686   5.9598   6.3727   6.6861   7.2489   7.2710   7.3537   7.5133
     7.6286   7.7813

     occupation numbers 
     1.0000   1.0000   1.0000   1.0000   1.0000   1.0000   1.0000   1.0000
     1.0000   1.0000   1.0000   1.0000   1.0000   1.0000   1.0000   1.0000
     1.0000   1.0000   1.0000   1.0000   1.0000   1.0000   1.0000   1.0000
     1.0000   1.0000   1.0000   1.0000   1.0000   1.0000   1.0000   1.0000
     1.0000   1.0000

          k = 0.0000 0.6252-0.1970 (  5344 PWs)   bands (ev):

   -45.9562 -45.9562 -33.8943 -33.8943 -22.3472 -22.3472 -22.3407 -22.3407
   -22.2303 -22.2303  -8.2832  -8.2832  -7.9470  -7.9470  -7.8480  -7.8480
     3.6516   3.6516   3.9325   3.9325   4.4637   4.4637   4.9804   4.9804
     5.4792   5.4792   5.9862   5.9862   7.3610   7.3610   7.5450   7.5450
     7.6453   7.6453

     occupation numbers 
     1.0000   1.0000   1.0000   1.0000   1.0000   1.0000   1.0000   1.0000
     1.0000   1.0000   1.0000   1.0000   1.0000   1.0000   1.0000   1.0000
     1.0000   1.0000   1.0000   1.0000   1.0000   1.0000   1.0000   1.0000
     1.0000   1.0000   1.0000   1.0000   1.0000   1.0000   1.0000   1.0000
     1.0000   1.0000

          k =-0.1805-0.1042 0.1313 (  5352 PWs)   bands (ev):

   -45.9648 -45.9477 -33.8958 -33.8925 -22.4396 -22.4138 -22.3224 -22.2832
   -22.2358 -22.1222  -9.0742  -8.4931  -8.3199  -7.6339  -7.2944  -7.1915
     3.1331   3.1742   3.3391   3.6981   3.8325   4.6887   4.9952   5.6460
     5.7424   6.5465   6.6401   6.8586   6.9607   7.1790   7.3412   7.4302
     7.7397   7.7970

     occupation numbers 
     1.0000   1.0000   1.0000   1.0000   1.0000   1.0000   1.0000   1.0000
     1.0000   1.0000   1.0000   1.0000   1.0000   1.0000   1.0000   1.0000
     1.0000   1.0000   1.0000   1.0000   1.0000   1.0000   1.0000   1.0000
     1.0000   1.0000   1.0000   1.0000   1.0000   1.0000   1.0000   1.0000
     1.0000   1.0000

          k =-0.1805-0.3126 0.1970 (  5338 PWs)   bands (ev):

   -45.9621 -45.9503 -33.8953 -33.8931 -22.4312 -22.3939 -22.3347 -22.2731
   -22.2490 -22.1437  -8.8782  -8.4020  -8.0815  -7.9264  -7.4297  -7.3417
     3.0578   3.3610   3.7582   3.9558   4.1503   4.4306   4.9884   5.1944
     5.6388   6.1744   6.5885   6.8237   6.9337   7.1197   7.2336   7.4706
     7.6173   7.7845

     occupation numbers 
     1.0000   1.0000   1.0000   1.0000   1.0000   1.0000   1.0000   1.0000
     1.0000   1.0000   1.0000   1.0000   1.0000   1.0000   1.0000   1.0000
     1.0000   1.0000   1.0000   1.0000   1.0000   1.0000   1.0000   1.0000
     1.0000   1.0000   1.0000   1.0000   1.0000   1.0000   1.0000   1.0000
     1.0000   1.0000

          k =-0.1805 0.7294-0.1313 (  5337 PWs)   bands (ev):

   -45.9579 -45.9544 -33.8946 -33.8939 -22.3997 -22.3860 -22.3543 -22.2885
   -22.2163 -22.1889  -8.5259  -8.3246  -8.1849  -7.7293  -7.7092  -7.6338
     3.2609   3.5342   3.7807   4.2058   4.4295   4.5730   4.7757   5.0418
     5.3379   5.8189   6.2950   6.6128   7.0144   7.2221   7.2929   7.4363
     7.6266   7.7247

     occupation numbers 
     1.0000   1.0000   1.0000   1.0000   1.0000   1.0000   1.0000   1.0000
     1.0000   1.0000   1.0000   1.0000   1.0000   1.0000   1.0000   1.0000
     1.0000   1.0000   1.0000   1.0000   1.0000   1.0000   1.0000   1.0000
     1.0000   1.0000   1.0000   1.0000   1.0000   1.0000   1.0000   1.0000
     1.0000   1.0000

          k =-0.1805 0.5210-0.0657 (  5346 PWs)   bands (ev):

   -45.9591 -45.9532 -33.8948 -33.8937 -22.4211 -22.3506 -22.3405 -22.3037
   -22.2477 -22.1697  -8.6542  -8.1549  -8.0569  -7.9510  -7.8560  -7.4293
     3.2132   3.6289   3.8079   3.9605   4.1901   4.6478   4.9417   5.1290
     5.4627   5.8310   6.1466   6.8610   6.8963   7.1628   7.3146   7.5400
     7.6083   7.7587

     occupation numbers 
     1.0000   1.0000   1.0000   1.0000   1.0000   1.0000   1.0000   1.0000
     1.0000   1.0000   1.0000   1.0000   1.0000   1.0000   1.0000   1.0000
     1.0000   1.0000   1.0000   1.0000   1.0000   1.0000   1.0000   1.0000
     1.0000   1.0000   1.0000   1.0000   1.0000   1.0000   1.0000   1.0000
     1.0000   1.0000

          k =-0.1805 0.3126 0.0000 (  5344 PWs)   bands (ev):

   -45.9630 -45.9494 -33.8955 -33.8929 -22.4321 -22.3899 -22.3045 -22.2963
   -22.2618 -22.1402  -8.9200  -8.3705  -8.2526  -7.6967  -7.5393  -7.2705
     3.1000   3.2837   3.6545   3.7139   4.2887   4.6519   4.7867   5.0738
     5.7461   6.4098   6.6128   6.7263   7.0993   7.2603   7.2835   7.4904
     7.5516   7.8199

     occupation numbers 
     1.0000   1.0000   1.0000   1.0000   1.0000   1.0000   1.0000   1.0000
     1.0000   1.0000   1.0000   1.0000   1.0000   1.0000   1.0000   1.0000
     1.0000   1.0000   1.0000   1.0000   1.0000   1.0000   1.0000   1.0000
     1.0000   1.0000   1.0000   1.0000   1.0000   1.0000   1.0000   1.0000
     1.0000   1.0000

          k =-0.3609-0.2084 0.2627 (  5333 PWs)   bands (ev):

   -45.9613 -45.9510 -33.8953 -33.8932 -22.4470 -22.4053 -22.3893 -22.2312
   -22.2203 -22.1315  -8.8990  -8.4512  -8.2174  -7.7952  -7.3680  -7.2802
     3.0954   3.2114   3.5009   3.6919   4.2130   4.5691   5.2899   5.4836
     6.0263   6.2340   6.4565   6.7434   6.7740   6.9908   7.1047   7.4099
     7.4665   7.7079

     occupation numbers 
     1.0000   1.0000   1.0000   1.0000   1.0000   1.0000   1.0000   1.0000
     1.0000   1.0000   1.0000   1.0000   1.0000   1.0000   1.0000   1.0000
     1.0000   1.0000   1.0000   1.0000   1.0000   1.0000   1.0000   1.0000
     1.0000   1.0000   1.0000   1.0000   1.0000   1.0000   1.0000   1.0000
     1.0000   1.0000

          k =-0.3609 0.8336-0.0657 (  5336 PWs)   bands (ev):

   -45.9591 -45.9532 -33.8949 -33.8937 -22.4376 -22.4281 -22.3908 -22.2447
   -22.1788 -22.1480  -8.7496  -8.4583  -8.3570  -7.5490  -7.4799  -7.4150
     3.0179   3.2290   3.4648   3.7847   4.4605   4.8320   5.0661   5.5154
     5.8050   6.2064   6.4510   6.6066   6.7482   6.9762   7.1290   7.2381
     7.4986   7.7410

     occupation numbers 
     1.0000   1.0000   1.0000   1.0000   1.0000   1.0000   1.0000   1.0000
     1.0000   1.0000   1.0000   1.0000   1.0000   1.0000   1.0000   1.0000
     1.0000   1.0000   1.0000   1.0000   1.0000   1.0000   1.0000   1.0000
     1.0000   1.0000   1.0000   1.0000   1.0000   1.0000   1.0000   1.0000
     1.0000   1.0000

          k =-0.3609 0.6252 0.0000 (  5348 PWs)   bands (ev):

   -45.9561 -45.9561 -33.8943 -33.8943 -22.4394 -22.4028 -22.3511 -22.2858
   -22.1910 -22.1623  -8.5989  -8.4562  -8.1607  -7.7644  -7.6673  -7.4069
     3.0851   3.2696   3.7712   4.0621   4.4180   4.5505   5.0060   5.3625
     5.6742   5.9514   6.2817   6.5546   6.9888   7.0460   7.1198   7.4428
     7.4941   7.7495

     occupation numbers 
     1.0000   1.0000   1.0000   1.0000   1.0000   1.0000   1.0000   1.0000
     1.0000   1.0000   1.0000   1.0000   1.0000   1.0000   1.0000   1.0000
     1.0000   1.0000   1.0000   1.0000   1.0000   1.0000   1.0000   1.0000
     1.0000   1.0000   1.0000   1.0000   1.0000   1.0000   1.0000   1.0000
     1.0000   1.0000

          k = 0.5414 0.3126-0.3940 (  5328 PWs)   bands (ev):

   -45.9595 -45.9527 -33.8950 -33.8936 -22.4513 -22.4440 -22.4061 -22.2282
   -22.1633 -22.1324  -8.8331  -8.5149  -8.4142  -7.4812  -7.3919  -7.3232
     3.0817   3.0894   3.1999   3.4446   4.7781   5.0435   5.3780   5.7512
     5.8252   5.9675   6.4287   6.4569   6.8342   6.9177   7.0851   7.2592
     7.4470   7.6692

     occupation numbers 
     1.0000   1.0000   1.0000   1.0000   1.0000   1.0000   1.0000   1.0000
     1.0000   1.0000   1.0000   1.0000   1.0000   1.0000   1.0000   1.0000
     1.0000   1.0000   1.0000   1.0000   1.0000   1.0000   1.0000   1.0000
     1.0000   1.0000   1.0000   1.0000   1.0000   1.0000   1.0000   1.0000
     1.0000   1.0000

          k =-0.0000-0.0000 0.1970 (  5349 PWs)   bands (ev):

   -45.9651 -45.9474 -33.8958 -33.8925 -22.4232 -22.4232 -22.3385 -22.2522
   -22.2522 -22.1253  -9.0961  -8.4323  -8.4323  -7.5545  -7.2527  -7.2527
     3.2228   3.2228   3.4408   3.6439   3.6439   4.5994   5.4564   5.5357
     5.5357   6.6040   6.6040   6.6717   6.8680   7.2430   7.2430   7.3992
     7.8811   7.8811

     occupation numbers 
     1.0000   1.0000   1.0000   1.0000   1.0000   1.0000   1.0000   1.0000
     1.0000   1.0000   1.0000   1.0000   1.0000   1.0000   1.0000   1.0000
     1.0000   1.0000   1.0000   1.0000   1.0000   1.0000   1.0000   1.0000
     1.0000   1.0000   1.0000   1.0000   1.0000   1.0000   1.0000   1.0000
     1.0000   1.0000

          k =-0.0000-0.2084 0.2627 (  5339 PWs)   bands (ev):

   -45.9631 -45.9494 -33.8954 -33.8929 -22.4323 -22.3852 -22.3070 -22.2928
   -22.2628 -22.1414  -8.9428  -8.3605  -8.2421  -7.7635  -7.4961  -7.2711
     3.1406   3.3538   3.6805   3.9196   4.1516   4.7380   4.9233   5.1279
     5.5119   6.0712   6.4886   6.7503   6.8377   7.2249   7.4095   7.4290
     7.7312   7.7861

     occupation numbers 
     1.0000   1.0000   1.0000   1.0000   1.0000   1.0000   1.0000   1.0000
     1.0000   1.0000   1.0000   1.0000   1.0000   1.0000   1.0000   1.0000
     1.0000   1.0000   1.0000   1.0000   1.0000   1.0000   1.0000   1.0000
     1.0000   1.0000   1.0000   1.0000   1.0000   1.0000   1.0000   1.0000
     1.0000   1.0000

          k =-0.0000 0.8336-0.0657 (  5322 PWs)   bands (ev):

   -45.9591 -45.9532 -33.8948 -33.8937 -22.4226 -22.3459 -22.3351 -22.3073
   -22.2505 -22.1698  -8.6620  -8.1504  -8.1270  -7.9255  -7.8132  -7.4415
     3.1648   3.5739   4.0902   4.2072   4.3519   4.6233   4.6258   5.1806
     5.3593   5.4876   6.2377   6.7086   7.0460   7.0796   7.3996   7.4693
     7.6332   7.6700

     occupation numbers 
     1.0000   1.0000   1.0000   1.0000   1.0000   1.0000   1.0000   1.0000
     1.0000   1.0000   1.0000   1.0000   1.0000   1.0000   1.0000   1.0000
     1.0000   1.0000   1.0000   1.0000   1.0000   1.0000   1.0000   1.0000
     1.0000   1.0000   1.0000   1.0000   1.0000   1.0000   1.0000   1.0000
     1.0000   1.0000

          k =-0.0000 0.6252 0.0000 (  5356 PWs)   bands (ev):

   -45.9579 -45.9544 -33.8946 -33.8939 -22.3963 -22.3878 -22.3587 -22.2848
   -22.2158 -22.1903  -8.5332  -8.3232  -8.1696  -7.7398  -7.7312  -7.6108
     3.4500   3.5330   3.6801   3.8704   4.3362   4.6215   4.9814   5.1892
     5.5125   5.8078   6.2169   6.4696   6.9908   7.2180   7.3035   7.4562
     7.5352   7.7681

     occupation numbers 
     1.0000   1.0000   1.0000   1.0000   1.0000   1.0000   1.0000   1.0000
     1.0000   1.0000   1.0000   1.0000   1.0000   1.0000   1.0000   1.0000
     1.0000   1.0000   1.0000   1.0000   1.0000   1.0000   1.0000   1.0000
     1.0000   1.0000   1.0000   1.0000   1.0000   1.0000   1.0000   1.0000
     1.0000   1.0000

          k =-0.0000 0.4168 0.0657 (  5349 PWs)   bands (ev):

   -45.9621 -45.9503 -33.8954 -33.8931 -22.4300 -22.3964 -22.3360 -22.2724
   -22.2480 -22.1437  -8.8717  -8.4086  -8.0634  -7.9325  -7.4413  -7.3330
     3.2137   3.3322   3.3954   4.0924   4.1282   4.3434   5.0136   5.3413
     5.6443   6.3480   6.6579   6.8168   6.8984   6.9793   7.2851   7.4825
     7.5903   7.7861

     occupation numbers 
     1.0000   1.0000   1.0000   1.0000   1.0000   1.0000   1.0000   1.0000
     1.0000   1.0000   1.0000   1.0000   1.0000   1.0000   1.0000   1.0000
     1.0000   1.0000   1.0000   1.0000   1.0000   1.0000   1.0000   1.0000
     1.0000   1.0000   1.0000   1.0000   1.0000   1.0000   1.0000   1.0000
     1.0000   1.0000

          k =-0.1805-0.1042 0.3283 (  5356 PWs)   bands (ev):

   -45.9621 -45.9503 -33.8953 -33.8931 -22.4293 -22.3930 -22.3334 -22.2742
   -22.2473 -22.1452  -8.9024  -8.3893  -8.0538  -7.9757  -7.4441  -7.3207
     3.2857   3.3318   3.7372   4.0578   4.0816   4.4543   5.0221   5.3311
     5.5105   6.0743   6.3564   6.7221   6.8661   7.0273   7.1763   7.4655
     7.6640   7.8056

     occupation numbers 
     1.0000   1.0000   1.0000   1.0000   1.0000   1.0000   1.0000   1.0000
     1.0000   1.0000   1.0000   1.0000   1.0000   1.0000   1.0000   1.0000
     1.0000   1.0000   1.0000   1.0000   1.0000   1.0000   1.0000   1.0000
     1.0000   1.0000   1.0000   1.0000   1.0000   1.0000   1.0000   1.0000
     1.0000   1.0000

          k =-0.1805 0.9377 0.0000 (  5331 PWs)   bands (ev):

   -45.9596 -45.9527 -33.8949 -33.8936 -22.4370 -22.3869 -22.3641 -22.2675
   -22.2194 -22.1523  -8.7637  -8.2954  -8.2604  -7.7610  -7.6512  -7.3478
     3.1341   3.4308   3.7705   4.1407   4.2643   4.5876   4.8133   5.3471
     5.6310   5.9864   6.3759   6.5811   6.7809   6.9929   7.2034   7.4092
     7.5480   7.6910

     occupation numbers 
     1.0000   1.0000   1.0000   1.0000   1.0000   1.0000   1.0000   1.0000
     1.0000   1.0000   1.0000   1.0000   1.0000   1.0000   1.0000   1.0000
     1.0000   1.0000   1.0000   1.0000   1.0000   1.0000   1.0000   1.0000
     1.0000   1.0000   1.0000   1.0000   1.0000   1.0000   1.0000   1.0000
     1.0000   1.0000

          k =-0.1805 0.7294 0.0657 (  5328 PWs)   bands (ev):

   -45.9561 -45.9561 -33.8943 -33.8943 -22.4263 -22.4246 -22.3166 -22.3140
   -22.1753 -22.1744  -8.5572  -8.5399  -8.0445  -7.9363  -7.5042  -7.4810
     3.1642   3.2898   3.6854   3.9716   4.4929   4.8903   4.9205   5.2220
     5.5191   5.9935   6.4683   6.6057   6.6866   6.9706   7.1955   7.3897
     7.5483   7.6803

     occupation numbers 
     1.0000   1.0000   1.0000   1.0000   1.0000   1.0000   1.0000   1.0000
     1.0000   1.0000   1.0000   1.0000   1.0000   1.0000   1.0000   1.0000
     1.0000   1.0000   1.0000   1.0000   1.0000   1.0000   1.0000   1.0000
     1.0000   1.0000   1.0000   1.0000   1.0000   1.0000   1.0000   1.0000
     1.0000   1.0000

          k =-0.1805 0.5210 0.1313 (  5342 PWs)   bands (ev):

   -45.9596 -45.9527 -33.8950 -33.8936 -22.4370 -22.3889 -22.3671 -22.2676
   -22.2182 -22.1516  -8.7456  -8.2972  -8.2438  -7.7620  -7.6606  -7.3438
     3.0855   3.4461   3.6064   3.8904   4.2458   4.6758   4.8694   5.4707
     5.6857   6.2005   6.3013   6.6309   6.9408   7.1080   7.2157   7.3001
     7.5450   7.7656

     occupation numbers 
     1.0000   1.0000   1.0000   1.0000   1.0000   1.0000   1.0000   1.0000
     1.0000   1.0000   1.0000   1.0000   1.0000   1.0000   1.0000   1.0000
     1.0000   1.0000   1.0000   1.0000   1.0000   1.0000   1.0000   1.0000
     1.0000   1.0000   1.0000   1.0000   1.0000   1.0000   1.0000   1.0000
     1.0000   1.0000

          k = 0.7219 0.4168-0.3283 (  5344 PWs)   bands (ev):

   -45.9591 -45.9532 -33.8949 -33.8936 -22.4361 -22.4275 -22.3910 -22.2431
   -22.1791 -22.1491  -8.7661  -8.4676  -8.3447  -7.5511  -7.5003  -7.3969
     3.2415   3.2893   3.3096   3.7483   4.5515   4.7327   5.1664   5.4501
     5.9821   6.0777   6.4158   6.4544   6.8425   6.8703   7.1078   7.1744
     7.3801   7.7299

     occupation numbers 
     1.0000   1.0000   1.0000   1.0000   1.0000   1.0000   1.0000   1.0000
     1.0000   1.0000   1.0000   1.0000   1.0000   1.0000   1.0000   1.0000
     1.0000   1.0000   1.0000   1.0000   1.0000   1.0000   1.0000   1.0000
     1.0000   1.0000   1.0000   1.0000   1.0000   1.0000   1.0000   1.0000
     1.0000   1.0000

          k = 0.7219 0.2084-0.2627 (  5343 PWs)   bands (ev):

   -45.9578 -45.9544 -33.8946 -33.8939 -22.4425 -22.4397 -22.3648 -22.2656
   -22.1630 -22.1529  -8.6920  -8.5539  -8.2445  -7.6974  -7.4447  -7.3809
     3.0792   3.1097   3.4620   4.0090   4.2873   5.0398   5.2290   5.4430
     5.8881   6.0440   6.2905   6.4503   6.7129   6.8897   7.1910   7.3240
     7.4316   7.7133

     occupation numbers 
     1.0000   1.0000   1.0000   1.0000   1.0000   1.0000   1.0000   1.0000
     1.0000   1.0000   1.0000   1.0000   1.0000   1.0000   1.0000   1.0000
     1.0000   1.0000   1.0000   1.0000   1.0000   1.0000   1.0000   1.0000
     1.0000   1.0000   1.0000   1.0000   1.0000   1.0000   1.0000   1.0000
     1.0000   1.0000

          k = 0.7219-0.0000-0.1970 (  5340 PWs)   bands (ev):

   -45.9561 -45.9561 -33.8943 -33.8943 -22.4257 -22.4257 -22.3161 -22.3161
   -22.1744 -22.1744  -8.5434  -8.5434  -7.9937  -7.9937  -7.4901  -7.4901
     3.1727   3.1727   3.8625   3.8625   4.6130   4.6130   5.0832   5.0832
     5.7614   5.7614   6.5747   6.5747   6.9030   6.9030   7.2921   7.2921
     7.6497   7.6497

     occupation numbers 
     1.0000   1.0000   1.0000   1.0000   1.0000   1.0000   1.0000   1.0000
     1.0000   1.0000   1.0000   1.0000   1.0000   1.0000   1.0000   1.0000
     1.0000   1.0000   1.0000   1.0000   1.0000   1.0000   1.0000   1.0000
     1.0000   1.0000   1.0000   1.0000   1.0000   1.0000   1.0000   1.0000
     1.0000   1.0000

          k = 0.5414 0.3126-0.1970 (  5354 PWs)   bands (ev):

   -45.9591 -45.9532 -33.8949 -33.8936 -22.4365 -22.4285 -22.3922 -22.2435
   -22.1788 -22.1486  -8.7523  -8.4610  -8.3491  -7.5540  -7.4897  -7.4026
     3.1691   3.2894   3.2911   3.5971   4.5379   4.8709   5.2092   5.4593
     5.8883   6.0591   6.5285   6.6952   6.8049   6.8293   7.1479   7.2230
     7.3736   7.7494

     occupation numbers 
     1.0000   1.0000   1.0000   1.0000   1.0000   1.0000   1.0000   1.0000
     1.0000   1.0000   1.0000   1.0000   1.0000   1.0000   1.0000   1.0000
     1.0000   1.0000   1.0000   1.0000   1.0000   1.0000   1.0000   1.0000
     1.0000   1.0000   1.0000   1.0000   1.0000   1.0000   1.0000   1.0000
     1.0000   1.0000

          k =-0.0000-0.0000 0.3940 (  5320 PWs)   bands (ev):

   -45.9614 -45.9511 -33.8951 -33.8932 -22.3881 -22.3881 -22.2957 -22.2894
   -22.2894 -22.1727  -8.7940  -8.2029  -8.2029  -7.9077  -7.5249  -7.5249
     3.5759   3.5759   3.8211   4.2310   4.2310   4.8966   4.8966   4.9150
     4.9662   5.8981   5.8981   6.2886   6.9293   7.3495   7.3495   7.3794
     7.7849   7.7849

     occupation numbers 
     1.0000   1.0000   1.0000   1.0000   1.0000   1.0000   1.0000   1.0000
     1.0000   1.0000   1.0000   1.0000   1.0000   1.0000   1.0000   1.0000
     1.0000   1.0000   1.0000   1.0000   1.0000   1.0000   1.0000   1.0000
     1.0000   1.0000   1.0000   1.0000   1.0000   1.0000   1.0000   1.0000
     1.0000   1.0000

          k =-0.0000 1.0419 0.0657 (  5331 PWs)   bands (ev):

   -45.9592 -45.9532 -33.8947 -33.8936 -22.4198 -22.3452 -22.3343 -22.3041
   -22.2519 -22.1716  -8.6946  -8.1710  -8.1014  -7.9360  -7.8222  -7.4291
     3.3995   3.7252   3.9735   4.2806   4.3430   4.5632   4.8475   5.1833
     5.2946   5.3495   5.9496   6.5257   6.9158   6.9716   7.4065   7.5369
     7.5982   7.6521

     occupation numbers 
     1.0000   1.0000   1.0000   1.0000   1.0000   1.0000   1.0000   1.0000
     1.0000   1.0000   1.0000   1.0000   1.0000   1.0000   1.0000   1.0000
     1.0000   1.0000   1.0000   1.0000   1.0000   1.0000   1.0000   1.0000
     1.0000   1.0000   1.0000   1.0000   1.0000   1.0000   1.0000   1.0000
     1.0000   1.0000

          k =-0.0000 0.8336 0.1313 (  5324 PWs)   bands (ev):

   -45.9562 -45.9562 -33.8943 -33.8942 -22.4394 -22.3989 -22.3532 -22.2814
   -22.1936 -22.1627  -8.6095  -8.4902  -8.1410  -7.7773  -7.6505  -7.4122
     3.1383   3.5227   3.6656   4.1122   4.3992   4.4683   5.1845   5.3180
     5.7522   5.8321   6.3573   6.3813   6.6423   6.9784   7.2490   7.2809
     7.4493   7.7417

     occupation numbers 
     1.0000   1.0000   1.0000   1.0000   1.0000   1.0000   1.0000   1.0000
     1.0000   1.0000   1.0000   1.0000   1.0000   1.0000   1.0000   1.0000
     1.0000   1.0000   1.0000   1.0000   1.0000   1.0000   1.0000   1.0000
     1.0000   1.0000   1.0000   1.0000   1.0000   1.0000   1.0000   1.0000
     1.0000   1.0000

          k = 0.9023 0.5210-0.2627 (  5346 PWs)   bands (ev):

   -45.9579 -45.9545 -33.8945 -33.8939 -22.3951 -22.3841 -22.3540 -22.2837
   -22.2181 -22.1923  -8.5813  -8.3590  -8.1485  -7.7488  -7.7236  -7.5986
     3.6653   3.6923   3.8275   4.2705   4.4456   4.4995   4.7112   4.9928
     5.3998   5.6720   6.0340   6.1647   6.9943   7.0834   7.2640   7.4453
     7.4853   7.7241

     occupation numbers 
     1.0000   1.0000   1.0000   1.0000   1.0000   1.0000   1.0000   1.0000
     1.0000   1.0000   1.0000   1.0000   1.0000   1.0000   1.0000   1.0000
     1.0000   1.0000   1.0000   1.0000   1.0000   1.0000   1.0000   1.0000
     1.0000   1.0000   1.0000   1.0000   1.0000   1.0000   1.0000   1.0000
     1.0000   1.0000

          k = 0.9023 0.3126-0.1970 (  5334 PWs)   bands (ev):

   -45.9562 -45.9562 -33.8942 -33.8942 -22.4242 -22.4242 -22.3142 -22.3142
   -22.1757 -22.1757  -8.5670  -8.5670  -7.9867  -7.9867  -7.4910  -7.4910
     3.3407   3.3407   3.8108   3.8108   4.7635   4.7635   4.9818   4.9818
     5.7556   5.7556   6.3625   6.3625   6.8577   6.8577   7.2094   7.2094
     7.6072   7.6072

     occupation numbers 
     1.0000   1.0000   1.0000   1.0000   1.0000   1.0000   1.0000   1.0000
     1.0000   1.0000   1.0000   1.0000   1.0000   1.0000   1.0000   1.0000
     1.0000   1.0000   1.0000   1.0000   1.0000   1.0000   1.0000   1.0000
     1.0000   1.0000   1.0000   1.0000   1.0000   1.0000   1.0000   1.0000
     1.0000   1.0000

          k = 0.0000 0.0000-0.5910 (  5338 PWs)   bands (ev):

   -45.9562 -45.9562 -33.8942 -33.8942 -22.3393 -22.3393 -22.3393 -22.3393
   -22.2353 -22.2353  -8.3635  -8.3635  -7.8744  -7.8744  -7.8744  -7.8744
     4.1633   4.1633   4.1633   4.1633   4.3364   4.3364   5.0444   5.0444
     5.0444   5.0444   5.5727   5.5727   7.2084   7.2084   7.5693   7.5693
     7.5693   7.5693

     occupation numbers 
     1.0000   1.0000   1.0000   1.0000   1.0000   1.0000   1.0000   1.0000
     1.0000   1.0000   1.0000   1.0000   1.0000   1.0000   1.0000   1.0000
     1.0000   1.0000   1.0000   1.0000   1.0000   1.0000   1.0000   1.0000
     1.0000   1.0000   1.0000   1.0000   1.0000   1.0000   1.0000   1.0000
     1.0000   1.0000

     highest occupied level (ev):     7.8811

!    total energy              =    -936.82685451 Ry
     estimated scf accuracy    <          2.3E-13 Ry

     The total energy is the sum of the following terms:
     one-electron contribution =    -132.36644118 Ry
     hartree contribution      =     102.66690439 Ry
     xc contribution           =    -108.59851150 Ry
     ewald contribution        =    -335.07093646 Ry
     one-center paw contrib.   =    -463.45786976 Ry
      -> PAW hartree energy AE =     297.64042447 Ry
      -> PAW hartree energy PS =    -296.10378063 Ry
      -> PAW xc energy AE      =    -561.28138247 Ry
      -> PAW xc energy PS      =      96.28686887 Ry
      -> total E_H with PAW    =     104.20354822 Ry
      -> total E_XC with PAW   =    -573.59302509 Ry

     convergence has been achieved in  27 iterations

     Forces acting on atoms (cartesian axes, Ry/au):

     atom    1 type  1   force =    -0.00000000    0.00000000    0.00165397
     atom    2 type  1   force =     0.00000000   -0.00000000    0.00165397
     atom    3 type  2   force =    -0.02360078    0.00866218    0.00424402
     atom    4 type  2   force =     0.00429872   -0.02476997    0.00424402
     atom    5 type  2   force =     0.01930206    0.01610779    0.00424402
     atom    6 type  2   force =    -0.00429872   -0.02476997    0.00424402
     atom    7 type  2   force =     0.02360078    0.00866218    0.00424402
     atom    8 type  2   force =    -0.01930206    0.01610779    0.00424402
     atom    9 type  3   force =     0.00000000   -0.00000000   -0.01438603
     atom   10 type  3   force =     0.00000000   -0.00000000   -0.01438603
     The non-local contrib.  to forces
     atom    1 type  1   force =    -0.00000000   -0.00000000    0.01704703
     atom    2 type  1   force =    -0.00000000   -0.00000000    0.01704703
     atom    3 type  2   force =     0.30365299   -0.15115629   -0.05077458
     atom    4 type  2   force =    -0.02092131    0.33854934   -0.05077458
     atom    5 type  2   force =    -0.28273168   -0.18739306   -0.05077458
     atom    6 type  2   force =     0.02092131    0.33854934   -0.05077458
     atom    7 type  2   force =    -0.30365299   -0.15115629   -0.05077458
     atom    8 type  2   force =     0.28273168   -0.18739306   -0.05077458
     atom    9 type  3   force =     0.00000000    0.00000000   -0.02299782
     atom   10 type  3   force =    -0.00000000   -0.00000000   -0.02299782
     The ionic contribution  to forces
     atom    1 type  1   force =     0.00000000    0.00000000   -1.04297590
     atom    2 type  1   force =    -0.00000000   -0.00000000   -1.04297590
     atom    3 type  2   force =    -3.82874673    2.74388185    0.46214761
     atom    4 type  2   force =    -0.46189803   -4.68773286    0.46214761
     atom    5 type  2   force =     4.29064475    1.94385100    0.46214761
     atom    6 type  2   force =     0.46189803   -4.68773286    0.46214761
     atom    7 type  2   force =     3.82874672    2.74388185    0.46214761
     atom    8 type  2   force =    -4.29064475    1.94385100    0.46214761
     atom    9 type  3   force =     0.00000000   -0.00000000   -0.34346694
     atom   10 type  3   force =     0.00000000   -0.00000000   -0.34346694
     The local contribution  to forces
     atom    1 type  1   force =     0.00000000   -0.00000000    1.02758293
     atom    2 type  1   force =     0.00000000    0.00000000    1.02758293
     atom    3 type  2   force =     3.50226282   -2.58522789   -0.40700048
     atom    4 type  2   force =     0.48774163    4.32566252   -0.40700048
     atom    5 type  2   force =    -3.99000444   -1.74043462   -0.40700048
     atom    6 type  2   force =    -0.48774163    4.32566252   -0.40700048
     atom    7 type  2   force =    -3.50226282   -2.58522790   -0.40700048
     atom    8 type  2   force =     3.99000444   -1.74043462   -0.40700048
     atom    9 type  3   force =    -0.00000000    0.00000000    0.35675275
     atom   10 type  3   force =     0.00000000    0.00000000    0.35675275
     The core correction contribution to forces
     atom    1 type  1   force =     0.00000000    0.00000000    0.00000000
     atom    2 type  1   force =     0.00000000    0.00000000    0.00000000
     atom    3 type  2   force =    -0.00076962    0.00116443   -0.00012844
     atom    4 type  2   force =    -0.00062361   -0.00124873   -0.00012844
     atom    5 type  2   force =     0.00139324    0.00008430   -0.00012844
     atom    6 type  2   force =     0.00062361   -0.00124873   -0.00012844
     atom    7 type  2   force =     0.00076962    0.00116443   -0.00012844
     atom    8 type  2   force =    -0.00139324    0.00008430   -0.00012844
     atom    9 type  3   force =    -0.00000000    0.00000000   -0.00467384
     atom   10 type  3   force =     0.00000000   -0.00000000   -0.00467384
     The Hubbard contrib.    to forces
     atom    1 type  1   force =     0.00000000    0.00000000    0.00000000
     atom    2 type  1   force =     0.00000000    0.00000000    0.00000000
     atom    3 type  2   force =     0.00000000    0.00000000    0.00000000
     atom    4 type  2   force =     0.00000000    0.00000000    0.00000000
     atom    5 type  2   force =     0.00000000    0.00000000    0.00000000
     atom    6 type  2   force =     0.00000000    0.00000000    0.00000000
     atom    7 type  2   force =     0.00000000    0.00000000    0.00000000
     atom    8 type  2   force =     0.00000000    0.00000000    0.00000000
     atom    9 type  3   force =     0.00000000    0.00000000    0.00000000
     atom   10 type  3   force =     0.00000000    0.00000000    0.00000000
     The SCF correction term to forces
     atom    1 type  1   force =    -0.00000000    0.00000000   -0.00000001
     atom    2 type  1   force =     0.00000000   -0.00000000   -0.00000001
     atom    3 type  2   force =    -0.00000024    0.00000008   -0.00000002
     atom    4 type  2   force =     0.00000005   -0.00000025   -0.00000002
     atom    5 type  2   force =     0.00000019    0.00000017   -0.00000002
     atom    6 type  2   force =    -0.00000005   -0.00000025   -0.00000002
     atom    7 type  2   force =     0.00000024    0.00000008   -0.00000002
     atom    8 type  2   force =    -0.00000019    0.00000017   -0.00000002
     atom    9 type  3   force =    -0.00000000    0.00000000   -0.00000010
     atom   10 type  3   force =     0.00000000    0.00000000   -0.00000010

     Total force =     0.065724     Total SCF correction =     0.000001


     Computing stress (Cartesian axis) and pressure

          total   stress  (Ry/bohr**3)                   (kbar)     P=      106.01
   0.00083186  -0.00000000  -0.00000000          122.37       -0.00       -0.00
   0.00000000   0.00083186   0.00000000            0.00      122.37        0.00
  -0.00000000   0.00000000   0.00049819           -0.00        0.00       73.29

     kinetic stress (kbar)  28038.67     -0.00     -0.00
                                0.00  28038.67      0.00
                                0.00      0.00  27949.70

     local   stress (kbar) -12856.39     -0.00      0.00
                               -0.00 -12856.39     -0.00
                                0.00     -0.00 -11478.62

     nonloc. stress (kbar)   7271.48      0.00     -0.00
                                0.00   7271.48      0.00
                               -0.00      0.00   7314.49

     hartree stress (kbar)   7490.20      0.00     -0.00
                                0.00   7490.20      0.00
                               -0.00      0.00   7214.31

     exc-cor stress (kbar)   1106.11      0.00     -0.00
                                0.00   1106.11      0.00
                               -0.00      0.00   1103.39

     corecor stress (kbar)  -7149.50      0.00      0.00
                                0.00  -7149.50      0.00
                                0.00      0.00  -7150.14

     ewald   stress (kbar) -23778.19      0.00     -0.00
                                0.00 -23778.19      0.00
                               -0.00      0.00 -24879.84

     hubbard stress (kbar)      0.00      0.00      0.00
                                0.00      0.00      0.00
                                0.00      0.00      0.00

     DFT-D   stress (kbar)      0.00      0.00      0.00
                                0.00      0.00      0.00
                                0.00      0.00      0.00

     XDM     stress (kbar)      0.00      0.00      0.00
                                0.00      0.00      0.00
                                0.00      0.00      0.00

     dft-nl  stress (kbar)      0.00      0.00      0.00
                                0.00      0.00      0.00
                                0.00      0.00      0.00

     TS-vdW  stress (kbar)      0.00      0.00      0.00
                                0.00      0.00      0.00
                                0.00      0.00      0.00

     MDB     stress (kbar)      0.00      0.00      0.00
                                0.00      0.00      0.00
                                0.00      0.00      0.00

     3D-RISM stress (kbar)      0.00      0.00      0.00
                                0.00      0.00      0.00
                                0.00      0.00      0.00

     Message from routine punch:
     Nothing written, as per user request (disk_io='none')
 
     init_run     :      0.54s CPU      0.79s WALL (       1 calls)
     electrons    :     18.13s CPU     18.53s WALL (       1 calls)
     forces       :      0.08s CPU      0.08s WALL (       1 calls)
     stress       :      0.16s CPU      0.17s WALL (       1 calls)

     Called by init_run:
     wfcinit      :      0.18s CPU      0.29s WALL (       1 calls)
     wfcinit:atom :      0.02s CPU      0.03s WALL (      32 calls)
     wfcinit:wfcr :      0.12s CPU      0.21s WALL (      32 calls)
     potinit      :      0.10s CPU      0.12s WALL (       1 calls)
     hinit0       :      0.20s CPU      0.23s WALL (       1 calls)

     Called by electrons:
     c_bands      :     13.62s CPU     13.91s WALL (      27 calls)
     sum_band     :      1.88s CPU      1.91s WALL (      27 calls)
     v_of_rho     :      0.12s CPU      0.13s WALL (      28 calls)
     v_h          :      0.05s CPU      0.06s WALL (      28 calls)
     v_xc         :      0.07s CPU      0.08s WALL (      30 calls)
     newd         :      0.25s CPU      0.29s WALL (      28 calls)
     PAW_pot      :      2.01s CPU      2.05s WALL (      28 calls)
     mix_rho      :      0.20s CPU      0.21s WALL (      27 calls)

     Called by c_bands:
     init_us_2    :      0.58s CPU      0.59s WALL (    1824 calls)
     cegterg      :     12.25s CPU     12.52s WALL (     864 calls)

     Called by sum_band:
     sum_band:wei :      0.00s CPU      0.00s WALL (      27 calls)
     sum_band:loo :      1.46s CPU      1.49s WALL (      27 calls)
     sum_band:buf :      0.29s CPU      0.31s WALL (     864 calls)
     sum_band:ini :      0.27s CPU      0.28s WALL (     864 calls)
     sum_band:cal :      0.02s CPU      0.02s WALL (     864 calls)
     sum_band:bec :      0.32s CPU      0.32s WALL (     864 calls)
     addusdens    :      0.28s CPU      0.28s WALL (      27 calls)
                                        0.28s GPU  (      27 calls)
     addusd:skk   :      0.01s CPU      0.01s WALL (      81 calls)
                                        0.01s GPU  (      81 calls)

     Called by *egterg:
     cdiaghg      :      5.36s CPU      5.50s WALL (    4775 calls)
                                        5.45s GPU  (    4775 calls)
     cegterg:over :      0.37s CPU      0.37s WALL (    3911 calls)
     cegterg:upda :      1.11s CPU      1.13s WALL (    3911 calls)
     cegterg:last :      0.15s CPU      0.15s WALL (    2564 calls)
     h_psi        :      3.47s CPU      3.72s WALL (    4807 calls)
     s_psi        :      1.20s CPU      1.22s WALL (    4807 calls)
     g_psi        :      0.08s CPU      0.08s WALL (    3911 calls)

     Called by h_psi:
     h_psi:calbec :      0.09s CPU      0.12s WALL (    4807 calls)
     vloc_psi     :      2.24s CPU      2.49s WALL (    4807 calls)
                                        2.44s GPU  (    4807 calls)
     add_vuspsi   :      1.01s CPU      1.03s WALL (    4807 calls)

     General routines
     calbec       :      0.10s CPU      0.14s WALL (    6215 calls)
     fft          :      0.04s CPU      0.07s WALL (     387 calls)
                                        0.03s GPU  (     359 calls)
     ffts         :      0.02s CPU      0.02s WALL (      55 calls)
                                        0.00s GPU  (      27 calls)
     fftw         :      0.16s CPU      1.53s WALL (   21208 calls)
                                        1.32s GPU  (   21208 calls)
     interpolate  :      0.09s CPU      0.10s WALL (      28 calls)
 
     Parallel routines

     PAW routines
     PAW_pot      :      2.01s CPU      2.05s WALL (      28 calls)
     PAW_symme    :      0.00s CPU      0.00s WALL (      55 calls)
 
     PWSCF        :     19.25s CPU     19.93s WALL

 
   This run was terminated on:  17: 5:57  29Nov2025            

=------------------------------------------------------------------------------=
   JOB DONE.
=------------------------------------------------------------------------------=
