
     Program PWSCF v.7.5 starts on 29Nov2025 at 17: 6: 3 

     This program is part of the open-source Quantum ESPRESSO suite
     for quantum simulation of materials; please cite
         "P. Giannozzi et al., J. Phys.:Condens. Matter 21 395502 (2009);
         "P. Giannozzi et al., J. Phys.:Condens. Matter 29 465901 (2017);
         "P. Giannozzi et al., J. Chem. Phys. 152 154105 (2020);
          URL http://www.quantum-espresso.org", 
     in publications or presentations arising from this work. More details at
     http://www.quantum-espresso.org/quote

     Parallel version (MPI & OpenMP), running on       1 processor cores
     Number of MPI processes:                 1
     Threads/MPI process:                     1

     MPI processes distributed on     1 nodes
     1889070 MiB available memory on the printing compute node when the environment starts
 
     Reading input from espresso.pwi
Warning: card &CELL ignored
Warning: card &FCP ignored
Warning: card &RISM ignored

     Current dimensions of program PWSCF are:
     Max number of different atomic species (ntypx) = 10
     Max number of k-points (npk) =  40000
     Max angular momentum in pseudopotentials (lmaxx) =  4
     file O.pbesol-n-kjpaw_psl.0.1.UPF: wavefunction(s)  2P renormalized
     file Nb.pbesol-spn-kjpaw_psl.0.3.0.UPF: wavefunction(s)  4S 4P renormalized
     Message from routine setup:
     using ibrav=0 with symmetry is DISCOURAGED, use correct ibrav instead
 
     Subspace diagonalization in iterative solution of the eigenvalue problem:
     a serial algorithm will be used

 
     G-vector sticks info
     --------------------
     sticks:   dense  smooth     PW     G-vecs:    dense   smooth      PW
     Sum        2885    1725    505                99691    46279    7313
 
     Using Slab Decomposition
 


     bravais-lattice index     =            0
     lattice parameter (alat)  =      10.4093  a.u.
     unit-cell volume          =     737.1516 (a.u.)^3
     number of atoms/cell      =           10
     number of atomic types    =            3
     number of electrons       =        68.00
     number of Kohn-Sham states=           34
     kinetic-energy cutoff     =      60.0000  Ry
     charge density cutoff     =     400.0000  Ry
     scf convergence threshold =      1.0E-12
     mixing beta               =       0.7000
     number of iterations used =            8  plain     mixing
     Exchange-correlation= SLA  PW   PSX  PSC
                           (   1   4  10   8   0   0   0)

     GPU acceleration is ACTIVE.  1 visible GPUs per MPI rank


     GPU used by master process:

        Device Number: 0
        Device name: NVIDIA B200
        Compute capability : 100
        Ratio of single to double precision performance  : 16
        Memory Clock Rate (KHz): 3996000
        Memory Bus Width (bits): 7680
        Peak Memory Bandwidth (GB/s): ******

     celldm(1)=  10.409328  celldm(2)=   0.000000  celldm(3)=   0.000000
     celldm(4)=   0.000000  celldm(5)=   0.000000  celldm(6)=   0.000000

     crystal axes: (cart. coord. in units of alat)
               a(1) = (   0.475014   0.274250   0.836151 )  
               a(2) = (  -0.475014   0.274250   0.836151 )  
               a(3) = (   0.000000  -0.548499   0.836151 )  

     reciprocal axes: (cart. coord. in units 2 pi/alat)
               b(1) = (  1.052600  0.607719  0.398652 )  
               b(2) = ( -1.052600  0.607719  0.398652 )  
               b(3) = ( -0.000000 -1.215438  0.398652 )  


     PseudoPot. # 1 for Li read from file:
     /home/qhossain/SSSP_1.3.0_PBEsol_efficiency/li_pbesol_v1.4.uspp.F.UPF
     MD5 check sum: aa28d9aeea6a965f2dc95ee9517b3536
     Pseudo is Ultrasoft, Zval =  3.0
     Generated by new atomic code, or converted to UPF format
     Using radial grid of  751 points,  5 beta functions with: 
                l(1) =   0
                l(2) =   0
                l(3) =   0
                l(4) =   1
                l(5) =   1
     Q(r) pseudized with 10 coefficients,  rinner =    1.150   1.150   1.150


     PseudoPot. # 2 for O  read from file:
     /home/qhossain/SSSP_1.3.0_PBEsol_efficiency/O.pbesol-n-kjpaw_psl.0.1.UPF
     MD5 check sum: 81d73d1479e654e5638b0319f0d6c2c7
     Pseudo is Projector augmented-wave + core cor, Zval =  6.0
     Generated using "atomic" code by A. Dal Corso  v.6.0 svn rev. 13079
     Shape of augmentation charge: BESSEL
     Using radial grid of 1095 points,  4 beta functions with: 
                l(1) =   0
                l(2) =   0
                l(3) =   1
                l(4) =   1
     Q(r) pseudized with 0 coefficients 


     PseudoPot. # 3 for Nb read from file:
     /home/qhossain/SSSP_1.3.0_PBEsol_efficiency/Nb.pbesol-spn-kjpaw_psl.0.3.0.UPF
     MD5 check sum: 3501bca1474143575298708b2d32ca28
     Pseudo is Projector augmented-wave + core cor, Zval = 13.0
     Generated using "atomic" code by A. Dal Corso  v.6.0 svn rev. 13079
     Shape of augmentation charge: PSQ
     Using radial grid of 1227 points,  6 beta functions with: 
                l(1) =   0
                l(2) =   0
                l(3) =   1
                l(4) =   1
                l(5) =   2
                l(6) =   2
     Q(r) pseudized with 0 coefficients 


     atomic species   valence    mass     pseudopotential
     Li                3.00     6.94000     Li( 1.00)
     O                 6.00    15.99900     O ( 1.00)
     Nb               13.00    92.90637     Nb( 1.00)

      6 Sym. Ops. (no inversion) found ( 3 have fractional translation)


                                    s                        frac. trans.

      isym =  1     identity                                     

 cryst.   s( 1) = (     1          0          0      )
                  (     0          1          0      )
                  (     0          0          1      )

 cart.    s( 1) = (  1.0000000 -0.0000000 -0.0000000 )
                  (  0.0000000  1.0000000  0.0000000 )
                  ( -0.0000000 -0.0000000  1.0000000 )


      isym =  2     120 deg rotation - cryst. axis [0,0,1]       

 cryst.   s( 2) = (     0          1          0      )
                  (     0          0          1      )
                  (     1          0          0      )

 cart.    s( 2) = ( -0.5000000 -0.8660254 -0.0000000 )
                  (  0.8660254 -0.5000000 -0.0000000 )
                  ( -0.0000000  0.0000000  1.0000000 )


      isym =  3     120 deg rotation - cryst. axis [0,0,-1]      

 cryst.   s( 3) = (     0          0          1      )
                  (     1          0          0      )
                  (     0          1          0      )

 cart.    s( 3) = ( -0.5000000  0.8660254  0.0000000 )
                  ( -0.8660254 -0.5000000 -0.0000000 )
                  (  0.0000000  0.0000000  1.0000000 )


      isym =  4     inv. 180 deg rotation - cart. axis [1,0,0]   

 cryst.   s( 4) = (     0          1          0      )    f =(  0.5000000 )
                  (     1          0          0      )       (  0.5000000 )
                  (     0          0          1      )       (  0.5000000 )

 cart.    s( 4) = ( -1.0000000 -0.0000000 -0.0000000 )    f =(  0.0000000 )
                  (  0.0000000  1.0000000  0.0000000 )       ( -0.0000000 )
                  (  0.0000000 -0.0000000  1.0000000 )       (  1.2542265 )


      isym =  5     inv. 180 deg rotation - cryst. axis [0,1,0]  

 cryst.   s( 5) = (     1          0          0      )    f =(  0.5000000 )
                  (     0          0          1      )       (  0.5000000 )
                  (     0          1          0      )       (  0.5000000 )

 cart.    s( 5) = (  0.5000000  0.8660254  0.0000000 )    f =(  0.0000000 )
                  (  0.8660254 -0.5000000 -0.0000000 )       ( -0.0000000 )
                  ( -0.0000000  0.0000000  1.0000000 )       (  1.2542265 )


      isym =  6     inv. 180 deg rotation - cryst. axis [1,1,0]  

 cryst.   s( 6) = (     0          0          1      )    f =(  0.5000000 )
                  (     0          1          0      )       (  0.5000000 )
                  (     1          0          0      )       (  0.5000000 )

 cart.    s( 6) = (  0.5000000 -0.8660254 -0.0000000 )    f =( -0.0000000 )
                  ( -0.8660254 -0.5000000 -0.0000000 )       ( -0.0000000 )
                  ( -0.0000000  0.0000000  1.0000000 )       (  1.2542265 )


   Cartesian axes

     site n.     atom                  positions (alat units)
         1        Li     tau(   1) = (  -0.0000000  -0.0000000   1.9651947  )
         2        Li     tau(   2) = (  -0.0000000  -0.0000000   0.7109682  )
         3        O      tau(   3) = (  -0.3044751  -0.0388324   1.4200454  )
         4        O      tau(   4) = (   0.1858674  -0.2442670   1.4200454  )
         5        O      tau(   5) = (   0.1186078   0.2830994   1.4200454  )
         6        O      tau(   6) = (   0.2891469   0.0299826   1.0019698  )
         7        O      tau(   7) = (  -0.1705392   0.2354173   1.0019698  )
         8        O      tau(   8) = (  -0.1186078  -0.2653999   1.0019698  )
         9        Nb     tau(   9) = (   0.0000000  -0.0000000   1.2569259  )
        10        Nb     tau(  10) = (  -0.0000000  -0.0000000   0.0026994  )

   Crystallographic axes

     site n.     atom                  positions (cryst. coord.)
         1        Li     tau(   1) = (  0.7834289  0.7834289  0.7834289  )
         2        Li     tau(   2) = (  0.2834289  0.2834289  0.2834289  )
         3        O      tau(   3) = (  0.2220144  0.8629954  0.6133023  )
         4        O      tau(   4) = (  0.6133023  0.2220144  0.8629954  )
         5        O      tau(   5) = (  0.8629954  0.6133023  0.2220144  )
         6        O      tau(   6) = (  0.7220144  0.1133023  0.3629954  )
         7        O      tau(   7) = (  0.3629954  0.7220144  0.1133023  )
         8        O      tau(   8) = (  0.1133023  0.3629954  0.7220144  )
         9        Nb     tau(   9) = (  0.5010761  0.5010761  0.5010761  )
        10        Nb     tau(  10) = (  0.0010761  0.0010761  0.0010761  )

     number of k points=    32
                       cart. coord. in units 2pi/alat
        k(    1) = (   0.0000000   0.0000000   0.0000000), wk =   0.0092593
        k(    2) = (  -0.0000000  -0.2025729   0.0664420), wk =   0.0555556
        k(    3) = (  -0.0000000  -0.4051459   0.1328840), wk =   0.0555556
        k(    4) = (   0.0000000   0.6077188  -0.1993260), wk =   0.0277778
        k(    5) = (  -0.1754333  -0.1012865   0.1328840), wk =   0.0555556
        k(    6) = (  -0.1754333  -0.3038594   0.1993260), wk =   0.1111111
        k(    7) = (  -0.1754333   0.7090053  -0.1328840), wk =   0.1111111
        k(    8) = (  -0.1754333   0.5064323  -0.0664420), wk =   0.1111111
        k(    9) = (  -0.1754333   0.3038594   0.0000000), wk =   0.0555556
        k(   10) = (  -0.3508666  -0.2025729   0.2657680), wk =   0.0555556
        k(   11) = (  -0.3508666   0.8102917  -0.0664420), wk =   0.1111111
        k(   12) = (  -0.3508666   0.6077188   0.0000000), wk =   0.0555556
        k(   13) = (   0.5262999   0.3038594  -0.3986521), wk =   0.0277778
        k(   14) = (  -0.0000000   0.0000000   0.1993260), wk =   0.0185185
        k(   15) = (  -0.0000000  -0.2025729   0.2657680), wk =   0.0555556
        k(   16) = (  -0.0000000   0.8102917  -0.0664420), wk =   0.0555556
        k(   17) = (  -0.0000000   0.6077188   0.0000000), wk =   0.0555556
        k(   18) = (  -0.0000000   0.4051459   0.0664420), wk =   0.0555556
        k(   19) = (  -0.1754333  -0.1012865   0.3322101), wk =   0.0555556
        k(   20) = (  -0.1754333   0.9115782   0.0000000), wk =   0.1111111
        k(   21) = (  -0.1754333   0.7090053   0.0664420), wk =   0.1111111
        k(   22) = (  -0.1754333   0.5064323   0.1328840), wk =   0.1111111
        k(   23) = (   0.7017332   0.4051459  -0.3322101), wk =   0.0555556
        k(   24) = (   0.7017332   0.2025729  -0.2657680), wk =   0.1111111
        k(   25) = (   0.7017332  -0.0000000  -0.1993260), wk =   0.0555556
        k(   26) = (   0.5262999   0.3038594  -0.1993260), wk =   0.0555556
        k(   27) = (  -0.0000000   0.0000000   0.3986521), wk =   0.0185185
        k(   28) = (  -0.0000000   1.0128647   0.0664420), wk =   0.0555556
        k(   29) = (  -0.0000000   0.8102917   0.1328840), wk =   0.0555556
        k(   30) = (   0.8771665   0.5064323  -0.2657680), wk =   0.0555556
        k(   31) = (   0.8771665   0.3038594  -0.1993260), wk =   0.0555556
        k(   32) = (   0.0000000   0.0000000  -0.5979781), wk =   0.0092593

                       cryst. coord.
        k(    1) = (   0.0000000   0.0000000   0.0000000), wk =   0.0092593
        k(    2) = (  -0.0000000   0.0000000   0.1666667), wk =   0.0555556
        k(    3) = (  -0.0000000   0.0000000   0.3333333), wk =   0.0555556
        k(    4) = (   0.0000000   0.0000000  -0.5000000), wk =   0.0277778
        k(    5) = (   0.0000000   0.1666667   0.1666667), wk =   0.0555556
        k(    6) = (   0.0000000   0.1666667   0.3333333), wk =   0.1111111
        k(    7) = (  -0.0000000   0.1666667  -0.5000000), wk =   0.1111111
        k(    8) = (   0.0000000   0.1666667  -0.3333333), wk =   0.1111111
        k(    9) = (   0.0000000   0.1666667  -0.1666667), wk =   0.0555556
        k(   10) = (   0.0000000   0.3333333   0.3333333), wk =   0.0555556
        k(   11) = (   0.0000000   0.3333333  -0.5000000), wk =   0.1111111
        k(   12) = (   0.0000000   0.3333333  -0.3333333), wk =   0.0555556
        k(   13) = (   0.0000000  -0.5000000  -0.5000000), wk =   0.0277778
        k(   14) = (   0.1666667   0.1666667   0.1666667), wk =   0.0185185
        k(   15) = (   0.1666667   0.1666667   0.3333333), wk =   0.0555556
        k(   16) = (   0.1666667   0.1666667  -0.5000000), wk =   0.0555556
        k(   17) = (   0.1666667   0.1666667  -0.3333333), wk =   0.0555556
        k(   18) = (   0.1666667   0.1666667  -0.1666667), wk =   0.0555556
        k(   19) = (   0.1666667   0.3333333   0.3333333), wk =   0.0555556
        k(   20) = (   0.1666667   0.3333333  -0.5000000), wk =   0.1111111
        k(   21) = (   0.1666667   0.3333333  -0.3333333), wk =   0.1111111
        k(   22) = (   0.1666667   0.3333333  -0.1666667), wk =   0.1111111
        k(   23) = (   0.1666667  -0.5000000  -0.5000000), wk =   0.0555556
        k(   24) = (   0.1666667  -0.5000000  -0.3333333), wk =   0.1111111
        k(   25) = (   0.1666667  -0.5000000  -0.1666667), wk =   0.0555556
        k(   26) = (   0.1666667  -0.3333333  -0.3333333), wk =   0.0555556
        k(   27) = (   0.3333333   0.3333333   0.3333333), wk =   0.0185185
        k(   28) = (   0.3333333   0.3333333  -0.5000000), wk =   0.0555556
        k(   29) = (   0.3333333   0.3333333  -0.3333333), wk =   0.0555556
        k(   30) = (   0.3333333  -0.5000000  -0.5000000), wk =   0.0555556
        k(   31) = (   0.3333333  -0.5000000  -0.3333333), wk =   0.0555556
        k(   32) = (  -0.5000000  -0.5000000  -0.5000000), wk =   0.0092593

     Dense  grid:    99691 G-vectors     FFT dimensions: (  72,  72,  72)

     Smooth grid:    46279 G-vectors     FFT dimensions: (  54,  54,  54)

     Dynamical RAM for                 wfc:       3.00 MB

     Dynamical RAM for     wfc (w. buffer):      99.04 MB

     Dynamical RAM for           str. fact:       4.56 MB

     Dynamical RAM for           local pot:       0.00 MB

     Dynamical RAM for          nlocal pot:       9.00 MB

     Dynamical RAM for                qrad:       4.82 MB

     Dynamical RAM for          rho,v,vnew:      13.11 MB

     Dynamical RAM for               rhoin:       4.37 MB

     Dynamical RAM for            rho*nmix:      24.34 MB

     Dynamical RAM for           G-vectors:       6.06 MB

     Dynamical RAM for          h,s,v(r/c):       0.21 MB

     Dynamical RAM for          <psi|beta>:       0.05 MB

     Dynamical RAM for                 psi:       6.00 MB

     Dynamical RAM for                hpsi:       6.00 MB

     Dynamical RAM for                spsi:       6.00 MB

     Dynamical RAM for      wfcinit/wfcrot:       6.03 MB

     Dynamical RAM for           addusdens:     292.06 MB

     Dynamical RAM for          addusforce:     308.06 MB

     Dynamical RAM for         addusstress:     305.75 MB

     Estimated static dynamical RAM per process >     161.28 MB

     Estimated max dynamical RAM per process >     493.68 MB

     Check: negative core charge=   -0.000005

     Initial potential from superposition of free atoms

     starting charge      67.0945, renormalised to      68.0000
     Starting wfcs are   54 randomized atomic wfcs
     Checking if some PAW data can be deallocated... 

     total cpu time spent up to now is        1.4 secs

     per-process dynamical memory:   561.5 Mb

     Self-consistent Calculation
[tb_dev] Currently allocated     1.86E+00 Mbytes, locked:    0 /   3
[tb_pin] Currently allocated     0.00E+00 Mbytes, locked:    0 /   0

     iteration #  1     ecut=    60.00 Ry     beta= 0.70
     Davidson diagonalization with overlap

---- Real-time Memory Report at c_bands before calling an iterative solver
           988 MiB given to the printing process from OS
           548 MiB allocation reported by mallinfo(arena+hblkhd)
       1888157 MiB available memory on the node where the printing process lives
     GPU memory used/free/total (MiB): 2293 / 180348 / 182642
------------------
     ethr =  1.00E-02,  avg # of iterations =  1.0

     total cpu time spent up to now is        1.8 secs

     total energy              =    -934.38903740 Ry
     estimated scf accuracy    <       4.53965354 Ry
[tb_dev] Currently allocated     0.00E+00 Mbytes, locked:    0 /   0
[tb_pin] Currently allocated     0.00E+00 Mbytes, locked:    0 /   0

     iteration #  2     ecut=    60.00 Ry     beta= 0.70
     Davidson diagonalization with overlap

---- Real-time Memory Report at c_bands before calling an iterative solver
          1037 MiB given to the printing process from OS
           625 MiB allocation reported by mallinfo(arena+hblkhd)
       1887825 MiB available memory on the node where the printing process lives
     GPU memory used/free/total (MiB): 2293 / 180348 / 182642
------------------
     ethr =  6.68E-03,  avg # of iterations =  8.7

     total cpu time spent up to now is        3.0 secs

     total energy              =    -933.39131826 Ry
     estimated scf accuracy    <      18.37426051 Ry
[tb_dev] Currently allocated     0.00E+00 Mbytes, locked:    0 /   0
[tb_pin] Currently allocated     0.00E+00 Mbytes, locked:    0 /   0

     iteration #  3     ecut=    60.00 Ry     beta= 0.70
     Davidson diagonalization with overlap

---- Real-time Memory Report at c_bands before calling an iterative solver
          1042 MiB given to the printing process from OS
           629 MiB allocation reported by mallinfo(arena+hblkhd)
       1887708 MiB available memory on the node where the printing process lives
     GPU memory used/free/total (MiB): 2295 / 180346 / 182642
------------------
     ethr =  6.68E-03,  avg # of iterations =  6.3

     total cpu time spent up to now is        3.8 secs

     total energy              =    -936.75791740 Ry
     estimated scf accuracy    <       0.07864273 Ry
[tb_dev] Currently allocated     0.00E+00 Mbytes, locked:    0 /   0
[tb_pin] Currently allocated     0.00E+00 Mbytes, locked:    0 /   0

     iteration #  4     ecut=    60.00 Ry     beta= 0.70
     Davidson diagonalization with overlap

---- Real-time Memory Report at c_bands before calling an iterative solver
          1044 MiB given to the printing process from OS
           631 MiB allocation reported by mallinfo(arena+hblkhd)
       1887705 MiB available memory on the node where the printing process lives
     GPU memory used/free/total (MiB): 2295 / 180346 / 182642
------------------
     ethr =  1.16E-04,  avg # of iterations =  7.1

     total cpu time spent up to now is        4.7 secs

     total energy              =    -936.68333888 Ry
     estimated scf accuracy    <       0.31213930 Ry
[tb_dev] Currently allocated     0.00E+00 Mbytes, locked:    0 /   0
[tb_pin] Currently allocated     0.00E+00 Mbytes, locked:    0 /   0

     iteration #  5     ecut=    60.00 Ry     beta= 0.70
     Davidson diagonalization with overlap

---- Real-time Memory Report at c_bands before calling an iterative solver
          1050 MiB given to the printing process from OS
           631 MiB allocation reported by mallinfo(arena+hblkhd)
       1887696 MiB available memory on the node where the printing process lives
     GPU memory used/free/total (MiB): 2295 / 180346 / 182642
------------------
     ethr =  1.16E-04,  avg # of iterations =  7.4

     total cpu time spent up to now is        5.8 secs

     total energy              =    -936.79631189 Ry
     estimated scf accuracy    <       0.60080829 Ry
[tb_dev] Currently allocated     0.00E+00 Mbytes, locked:    0 /   0
[tb_pin] Currently allocated     0.00E+00 Mbytes, locked:    0 /   0

     iteration #  6     ecut=    60.00 Ry     beta= 0.70
     Davidson diagonalization with overlap

---- Real-time Memory Report at c_bands before calling an iterative solver
          1052 MiB given to the printing process from OS
           634 MiB allocation reported by mallinfo(arena+hblkhd)
       1887687 MiB available memory on the node where the printing process lives
     GPU memory used/free/total (MiB): 2295 / 180346 / 182642
------------------
     ethr =  1.16E-04,  avg # of iterations =  6.1

     total cpu time spent up to now is        6.6 secs

     total energy              =    -936.79897636 Ry
     estimated scf accuracy    <       0.09976908 Ry
[tb_dev] Currently allocated     0.00E+00 Mbytes, locked:    0 /   0
[tb_pin] Currently allocated     0.00E+00 Mbytes, locked:    0 /   0

     iteration #  7     ecut=    60.00 Ry     beta= 0.70
     Davidson diagonalization with overlap

---- Real-time Memory Report at c_bands before calling an iterative solver
          1054 MiB given to the printing process from OS
           624 MiB allocation reported by mallinfo(arena+hblkhd)
       1887678 MiB available memory on the node where the printing process lives
     GPU memory used/free/total (MiB): 2295 / 180346 / 182642
------------------
     ethr =  1.16E-04,  avg # of iterations =  4.9

     total cpu time spent up to now is        7.3 secs

     total energy              =    -936.83114121 Ry
     estimated scf accuracy    <       0.00118421 Ry
[tb_dev] Currently allocated     0.00E+00 Mbytes, locked:    0 /   0
[tb_pin] Currently allocated     0.00E+00 Mbytes, locked:    0 /   0

     iteration #  8     ecut=    60.00 Ry     beta= 0.70
     Davidson diagonalization with overlap

---- Real-time Memory Report at c_bands before calling an iterative solver
          1057 MiB given to the printing process from OS
           638 MiB allocation reported by mallinfo(arena+hblkhd)
       1887689 MiB available memory on the node where the printing process lives
     GPU memory used/free/total (MiB): 2295 / 180346 / 182642
------------------
     ethr =  1.74E-06,  avg # of iterations =  7.8

     total cpu time spent up to now is        8.3 secs

     total energy              =    -936.83166932 Ry
     estimated scf accuracy    <       0.00588895 Ry
[tb_dev] Currently allocated     0.00E+00 Mbytes, locked:    0 /   0
[tb_pin] Currently allocated     0.00E+00 Mbytes, locked:    0 /   0

     iteration #  9     ecut=    60.00 Ry     beta= 0.70
     Davidson diagonalization with overlap

---- Real-time Memory Report at c_bands before calling an iterative solver
          1058 MiB given to the printing process from OS
           639 MiB allocation reported by mallinfo(arena+hblkhd)
       1887673 MiB available memory on the node where the printing process lives
     GPU memory used/free/total (MiB): 2295 / 180346 / 182642
------------------
     ethr =  1.74E-06,  avg # of iterations =  3.2

     total cpu time spent up to now is        8.9 secs

     total energy              =    -936.83069293 Ry
     estimated scf accuracy    <       0.00207042 Ry
[tb_dev] Currently allocated     0.00E+00 Mbytes, locked:    0 /   0
[tb_pin] Currently allocated     0.00E+00 Mbytes, locked:    0 /   0

     iteration # 10     ecut=    60.00 Ry     beta= 0.70
     Davidson diagonalization with overlap

---- Real-time Memory Report at c_bands before calling an iterative solver
          1059 MiB given to the printing process from OS
           640 MiB allocation reported by mallinfo(arena+hblkhd)
       1887670 MiB available memory on the node where the printing process lives
     GPU memory used/free/total (MiB): 2295 / 180346 / 182642
------------------
     ethr =  1.74E-06,  avg # of iterations =  6.2

     total cpu time spent up to now is        9.8 secs

     total energy              =    -936.83160482 Ry
     estimated scf accuracy    <       0.00117398 Ry
[tb_dev] Currently allocated     0.00E+00 Mbytes, locked:    0 /   0
[tb_pin] Currently allocated     0.00E+00 Mbytes, locked:    0 /   0

     iteration # 11     ecut=    60.00 Ry     beta= 0.70
     Davidson diagonalization with overlap

---- Real-time Memory Report at c_bands before calling an iterative solver
          1059 MiB given to the printing process from OS
           640 MiB allocation reported by mallinfo(arena+hblkhd)
       1887692 MiB available memory on the node where the printing process lives
     GPU memory used/free/total (MiB): 2295 / 180346 / 182642
------------------
     ethr =  1.73E-06,  avg # of iterations =  2.0

     total cpu time spent up to now is       10.2 secs

     total energy              =    -936.83164381 Ry
     estimated scf accuracy    <       0.00028183 Ry
[tb_dev] Currently allocated     0.00E+00 Mbytes, locked:    0 /   0
[tb_pin] Currently allocated     0.00E+00 Mbytes, locked:    0 /   0

     iteration # 12     ecut=    60.00 Ry     beta= 0.70
     Davidson diagonalization with overlap

---- Real-time Memory Report at c_bands before calling an iterative solver
          1059 MiB given to the printing process from OS
           640 MiB allocation reported by mallinfo(arena+hblkhd)
       1887697 MiB available memory on the node where the printing process lives
     GPU memory used/free/total (MiB): 2295 / 180346 / 182642
------------------
     ethr =  4.14E-07,  avg # of iterations =  5.1

     total cpu time spent up to now is       10.9 secs

     total energy              =    -936.83168939 Ry
     estimated scf accuracy    <       0.00002548 Ry
[tb_dev] Currently allocated     0.00E+00 Mbytes, locked:    0 /   0
[tb_pin] Currently allocated     0.00E+00 Mbytes, locked:    0 /   0

     iteration # 13     ecut=    60.00 Ry     beta= 0.70
     Davidson diagonalization with overlap

---- Real-time Memory Report at c_bands before calling an iterative solver
          1059 MiB given to the printing process from OS
           640 MiB allocation reported by mallinfo(arena+hblkhd)
       1887694 MiB available memory on the node where the printing process lives
     GPU memory used/free/total (MiB): 2295 / 180346 / 182642
------------------
     ethr =  3.75E-08,  avg # of iterations =  6.3

     total cpu time spent up to now is       11.7 secs

     total energy              =    -936.83171063 Ry
     estimated scf accuracy    <       0.00001004 Ry
[tb_dev] Currently allocated     0.00E+00 Mbytes, locked:    0 /   0
[tb_pin] Currently allocated     0.00E+00 Mbytes, locked:    0 /   0

     iteration # 14     ecut=    60.00 Ry     beta= 0.70
     Davidson diagonalization with overlap

---- Real-time Memory Report at c_bands before calling an iterative solver
          1059 MiB given to the printing process from OS
           640 MiB allocation reported by mallinfo(arena+hblkhd)
       1887688 MiB available memory on the node where the printing process lives
     GPU memory used/free/total (MiB): 2295 / 180346 / 182642
------------------
     ethr =  1.48E-08,  avg # of iterations =  1.2

     total cpu time spent up to now is       12.1 secs

     total energy              =    -936.83170848 Ry
     estimated scf accuracy    <       0.00000770 Ry
[tb_dev] Currently allocated     0.00E+00 Mbytes, locked:    0 /   0
[tb_pin] Currently allocated     0.00E+00 Mbytes, locked:    0 /   0

     iteration # 15     ecut=    60.00 Ry     beta= 0.70
     Davidson diagonalization with overlap

---- Real-time Memory Report at c_bands before calling an iterative solver
          1059 MiB given to the printing process from OS
           640 MiB allocation reported by mallinfo(arena+hblkhd)
       1887684 MiB available memory on the node where the printing process lives
     GPU memory used/free/total (MiB): 2295 / 180346 / 182642
------------------
     ethr =  1.13E-08,  avg # of iterations =  2.2

     total cpu time spent up to now is       12.6 secs

     total energy              =    -936.83170799 Ry
     estimated scf accuracy    <       0.00000211 Ry
[tb_dev] Currently allocated     0.00E+00 Mbytes, locked:    0 /   0
[tb_pin] Currently allocated     0.00E+00 Mbytes, locked:    0 /   0

     iteration # 16     ecut=    60.00 Ry     beta= 0.70
     Davidson diagonalization with overlap

---- Real-time Memory Report at c_bands before calling an iterative solver
          1059 MiB given to the printing process from OS
           640 MiB allocation reported by mallinfo(arena+hblkhd)
       1887684 MiB available memory on the node where the printing process lives
     GPU memory used/free/total (MiB): 2295 / 180346 / 182642
------------------
     ethr =  3.10E-09,  avg # of iterations =  5.8

     total cpu time spent up to now is       13.3 secs

     total energy              =    -936.83170917 Ry
     estimated scf accuracy    <       0.00000062 Ry
[tb_dev] Currently allocated     0.00E+00 Mbytes, locked:    0 /   0
[tb_pin] Currently allocated     0.00E+00 Mbytes, locked:    0 /   0

     iteration # 17     ecut=    60.00 Ry     beta= 0.70
     Davidson diagonalization with overlap

---- Real-time Memory Report at c_bands before calling an iterative solver
          1059 MiB given to the printing process from OS
           640 MiB allocation reported by mallinfo(arena+hblkhd)
       1887679 MiB available memory on the node where the printing process lives
     GPU memory used/free/total (MiB): 2295 / 180346 / 182642
------------------
     ethr =  9.06E-10,  avg # of iterations =  1.3

     total cpu time spent up to now is       13.7 secs

     total energy              =    -936.83170901 Ry
     estimated scf accuracy    <       0.00000041 Ry
[tb_dev] Currently allocated     0.00E+00 Mbytes, locked:    0 /   0
[tb_pin] Currently allocated     0.00E+00 Mbytes, locked:    0 /   0

     iteration # 18     ecut=    60.00 Ry     beta= 0.70
     Davidson diagonalization with overlap

---- Real-time Memory Report at c_bands before calling an iterative solver
          1059 MiB given to the printing process from OS
           640 MiB allocation reported by mallinfo(arena+hblkhd)
       1887679 MiB available memory on the node where the printing process lives
     GPU memory used/free/total (MiB): 2295 / 180346 / 182642
------------------
     ethr =  6.00E-10,  avg # of iterations =  3.4

     total cpu time spent up to now is       14.3 secs

     total energy              =    -936.83170908 Ry
     estimated scf accuracy    <       0.00000002 Ry
[tb_dev] Currently allocated     0.00E+00 Mbytes, locked:    0 /   0
[tb_pin] Currently allocated     0.00E+00 Mbytes, locked:    0 /   0

     iteration # 19     ecut=    60.00 Ry     beta= 0.70
     Davidson diagonalization with overlap

---- Real-time Memory Report at c_bands before calling an iterative solver
          1059 MiB given to the printing process from OS
           640 MiB allocation reported by mallinfo(arena+hblkhd)
       1887675 MiB available memory on the node where the printing process lives
     GPU memory used/free/total (MiB): 2295 / 180346 / 182642
------------------
     ethr =  2.22E-11,  avg # of iterations =  6.4

     total cpu time spent up to now is       15.2 secs

     total energy              =    -936.83170910 Ry
     estimated scf accuracy    <       0.00000002 Ry
[tb_dev] Currently allocated     0.00E+00 Mbytes, locked:    0 /   0
[tb_pin] Currently allocated     0.00E+00 Mbytes, locked:    0 /   0

     iteration # 20     ecut=    60.00 Ry     beta= 0.70
     Davidson diagonalization with overlap

---- Real-time Memory Report at c_bands before calling an iterative solver
          1059 MiB given to the printing process from OS
           640 MiB allocation reported by mallinfo(arena+hblkhd)
       1887675 MiB available memory on the node where the printing process lives
     GPU memory used/free/total (MiB): 2295 / 180346 / 182642
------------------
     ethr =  2.22E-11,  avg # of iterations =  2.2

     total cpu time spent up to now is       15.6 secs

     total energy              =    -936.83170910 Ry
     estimated scf accuracy    <          1.5E-09 Ry
[tb_dev] Currently allocated     0.00E+00 Mbytes, locked:    0 /   0
[tb_pin] Currently allocated     0.00E+00 Mbytes, locked:    0 /   0

     iteration # 21     ecut=    60.00 Ry     beta= 0.70
     Davidson diagonalization with overlap

---- Real-time Memory Report at c_bands before calling an iterative solver
          1059 MiB given to the printing process from OS
           640 MiB allocation reported by mallinfo(arena+hblkhd)
       1887675 MiB available memory on the node where the printing process lives
     GPU memory used/free/total (MiB): 2295 / 180346 / 182642
------------------
     ethr =  2.16E-12,  avg # of iterations =  7.2

     total cpu time spent up to now is       16.6 secs

     total energy              =    -936.83170910 Ry
     estimated scf accuracy    <          6.1E-09 Ry
[tb_dev] Currently allocated     0.00E+00 Mbytes, locked:    0 /   0
[tb_pin] Currently allocated     0.00E+00 Mbytes, locked:    0 /   0

     iteration # 22     ecut=    60.00 Ry     beta= 0.70
     Davidson diagonalization with overlap

---- Real-time Memory Report at c_bands before calling an iterative solver
          1059 MiB given to the printing process from OS
           640 MiB allocation reported by mallinfo(arena+hblkhd)
       1887672 MiB available memory on the node where the printing process lives
     GPU memory used/free/total (MiB): 2295 / 180346 / 182642
------------------
     ethr =  2.16E-12,  avg # of iterations =  1.0

     total cpu time spent up to now is       17.0 secs

     total energy              =    -936.83170910 Ry
     estimated scf accuracy    <          7.4E-09 Ry
[tb_dev] Currently allocated     0.00E+00 Mbytes, locked:    0 /   0
[tb_pin] Currently allocated     0.00E+00 Mbytes, locked:    0 /   0

     iteration # 23     ecut=    60.00 Ry     beta= 0.70
     Davidson diagonalization with overlap

---- Real-time Memory Report at c_bands before calling an iterative solver
          1059 MiB given to the printing process from OS
           640 MiB allocation reported by mallinfo(arena+hblkhd)
       1887668 MiB available memory on the node where the printing process lives
     GPU memory used/free/total (MiB): 2295 / 180346 / 182642
------------------
     ethr =  2.16E-12,  avg # of iterations =  1.9

     total cpu time spent up to now is       17.4 secs

     total energy              =    -936.83170910 Ry
     estimated scf accuracy    <          4.9E-09 Ry
[tb_dev] Currently allocated     0.00E+00 Mbytes, locked:    0 /   0
[tb_pin] Currently allocated     0.00E+00 Mbytes, locked:    0 /   0

     iteration # 24     ecut=    60.00 Ry     beta= 0.70
     Davidson diagonalization with overlap

---- Real-time Memory Report at c_bands before calling an iterative solver
          1059 MiB given to the printing process from OS
           640 MiB allocation reported by mallinfo(arena+hblkhd)
       1887662 MiB available memory on the node where the printing process lives
     GPU memory used/free/total (MiB): 2295 / 180346 / 182642
------------------
     ethr =  2.16E-12,  avg # of iterations =  5.3

     total cpu time spent up to now is       18.1 secs

     total energy              =    -936.83170910 Ry
     estimated scf accuracy    <          1.6E-10 Ry
[tb_dev] Currently allocated     0.00E+00 Mbytes, locked:    0 /   0
[tb_pin] Currently allocated     0.00E+00 Mbytes, locked:    0 /   0

     iteration # 25     ecut=    60.00 Ry     beta= 0.70
     Davidson diagonalization with overlap

---- Real-time Memory Report at c_bands before calling an iterative solver
          1059 MiB given to the printing process from OS
           640 MiB allocation reported by mallinfo(arena+hblkhd)
       1887659 MiB available memory on the node where the printing process lives
     GPU memory used/free/total (MiB): 2295 / 180346 / 182642
------------------
     ethr =  2.35E-13,  avg # of iterations =  6.3

     total cpu time spent up to now is       19.0 secs

     total energy              =    -936.83170910 Ry
     estimated scf accuracy    <          8.0E-11 Ry
[tb_dev] Currently allocated     0.00E+00 Mbytes, locked:    0 /   0
[tb_pin] Currently allocated     0.00E+00 Mbytes, locked:    0 /   0

     iteration # 26     ecut=    60.00 Ry     beta= 0.70
     Davidson diagonalization with overlap

---- Real-time Memory Report at c_bands before calling an iterative solver
          1059 MiB given to the printing process from OS
           640 MiB allocation reported by mallinfo(arena+hblkhd)
       1887659 MiB available memory on the node where the printing process lives
     GPU memory used/free/total (MiB): 2295 / 180346 / 182642
------------------
     ethr =  1.17E-13,  avg # of iterations =  1.9

     total cpu time spent up to now is       19.4 secs

     total energy              =    -936.83170910 Ry
     estimated scf accuracy    <          1.3E-10 Ry
[tb_dev] Currently allocated     0.00E+00 Mbytes, locked:    0 /   0
[tb_pin] Currently allocated     0.00E+00 Mbytes, locked:    0 /   0

     iteration # 27     ecut=    60.00 Ry     beta= 0.70
     Davidson diagonalization with overlap

---- Real-time Memory Report at c_bands before calling an iterative solver
          1059 MiB given to the printing process from OS
           640 MiB allocation reported by mallinfo(arena+hblkhd)
       1887656 MiB available memory on the node where the printing process lives
     GPU memory used/free/total (MiB): 2295 / 180346 / 182642
------------------
     ethr =  1.17E-13,  avg # of iterations =  2.1

     total cpu time spent up to now is       19.9 secs

     total energy              =    -936.83170910 Ry
     estimated scf accuracy    <          3.4E-11 Ry
[tb_dev] Currently allocated     0.00E+00 Mbytes, locked:    0 /   0
[tb_pin] Currently allocated     0.00E+00 Mbytes, locked:    0 /   0

     iteration # 28     ecut=    60.00 Ry     beta= 0.70
     Davidson diagonalization with overlap

---- Real-time Memory Report at c_bands before calling an iterative solver
          1059 MiB given to the printing process from OS
           640 MiB allocation reported by mallinfo(arena+hblkhd)
       1887653 MiB available memory on the node where the printing process lives
     GPU memory used/free/total (MiB): 2295 / 180346 / 182642
------------------
     ethr =  1.00E-13,  avg # of iterations =  1.3

     total cpu time spent up to now is       20.3 secs

     total energy              =    -936.83170910 Ry
     estimated scf accuracy    <          1.9E-11 Ry
[tb_dev] Currently allocated     0.00E+00 Mbytes, locked:    0 /   0
[tb_pin] Currently allocated     0.00E+00 Mbytes, locked:    0 /   0

     iteration # 29     ecut=    60.00 Ry     beta= 0.70
     Davidson diagonalization with overlap

---- Real-time Memory Report at c_bands before calling an iterative solver
          1059 MiB given to the printing process from OS
           640 MiB allocation reported by mallinfo(arena+hblkhd)
       1887650 MiB available memory on the node where the printing process lives
     GPU memory used/free/total (MiB): 2295 / 180346 / 182642
------------------
     ethr =  1.00E-13,  avg # of iterations =  1.0

     total cpu time spent up to now is       20.7 secs

     total energy              =    -936.83170910 Ry
     estimated scf accuracy    <          1.1E-11 Ry
[tb_dev] Currently allocated     0.00E+00 Mbytes, locked:    0 /   0
[tb_pin] Currently allocated     0.00E+00 Mbytes, locked:    0 /   0

     iteration # 30     ecut=    60.00 Ry     beta= 0.70
     Davidson diagonalization with overlap

---- Real-time Memory Report at c_bands before calling an iterative solver
          1059 MiB given to the printing process from OS
           640 MiB allocation reported by mallinfo(arena+hblkhd)
       1887643 MiB available memory on the node where the printing process lives
     GPU memory used/free/total (MiB): 2295 / 180346 / 182642
------------------
     ethr =  1.00E-13,  avg # of iterations =  1.0

     total cpu time spent up to now is       21.1 secs

     total energy              =    -936.83170910 Ry
     estimated scf accuracy    <          8.8E-12 Ry
[tb_dev] Currently allocated     0.00E+00 Mbytes, locked:    0 /   0
[tb_pin] Currently allocated     0.00E+00 Mbytes, locked:    0 /   0

     iteration # 31     ecut=    60.00 Ry     beta= 0.70
     Davidson diagonalization with overlap

---- Real-time Memory Report at c_bands before calling an iterative solver
          1059 MiB given to the printing process from OS
           640 MiB allocation reported by mallinfo(arena+hblkhd)
       1887644 MiB available memory on the node where the printing process lives
     GPU memory used/free/total (MiB): 2295 / 180346 / 182642
------------------
     ethr =  1.00E-13,  avg # of iterations =  1.0

     total cpu time spent up to now is       21.5 secs

     total energy              =    -936.83170910 Ry
     estimated scf accuracy    <          9.9E-12 Ry
[tb_dev] Currently allocated     0.00E+00 Mbytes, locked:    0 /   0
[tb_pin] Currently allocated     0.00E+00 Mbytes, locked:    0 /   0

     iteration # 32     ecut=    60.00 Ry     beta= 0.70
     Davidson diagonalization with overlap

---- Real-time Memory Report at c_bands before calling an iterative solver
          1059 MiB given to the printing process from OS
           640 MiB allocation reported by mallinfo(arena+hblkhd)
       1887637 MiB available memory on the node where the printing process lives
     GPU memory used/free/total (MiB): 2295 / 180346 / 182642
------------------
     ethr =  1.00E-13,  avg # of iterations =  4.8

     total cpu time spent up to now is       22.1 secs

     total energy              =    -936.83170910 Ry
     estimated scf accuracy    <          1.7E-11 Ry
[tb_dev] Currently allocated     0.00E+00 Mbytes, locked:    0 /   0
[tb_pin] Currently allocated     0.00E+00 Mbytes, locked:    0 /   0

     iteration # 33     ecut=    60.00 Ry     beta= 0.70
     Davidson diagonalization with overlap

---- Real-time Memory Report at c_bands before calling an iterative solver
          1059 MiB given to the printing process from OS
           640 MiB allocation reported by mallinfo(arena+hblkhd)
       1887637 MiB available memory on the node where the printing process lives
     GPU memory used/free/total (MiB): 2295 / 180346 / 182642
------------------
     ethr =  1.00E-13,  avg # of iterations =  1.0

     total cpu time spent up to now is       22.5 secs

     total energy              =    -936.83170910 Ry
     estimated scf accuracy    <          6.8E-12 Ry
[tb_dev] Currently allocated     0.00E+00 Mbytes, locked:    0 /   0
[tb_pin] Currently allocated     0.00E+00 Mbytes, locked:    0 /   0

     iteration # 34     ecut=    60.00 Ry     beta= 0.70
     Davidson diagonalization with overlap

---- Real-time Memory Report at c_bands before calling an iterative solver
          1059 MiB given to the printing process from OS
           640 MiB allocation reported by mallinfo(arena+hblkhd)
       1887629 MiB available memory on the node where the printing process lives
     GPU memory used/free/total (MiB): 2295 / 180346 / 182642
------------------
     ethr =  1.00E-13,  avg # of iterations =  1.0

     total cpu time spent up to now is       22.9 secs

     total energy              =    -936.83170910 Ry
     estimated scf accuracy    <          7.0E-12 Ry
[tb_dev] Currently allocated     0.00E+00 Mbytes, locked:    0 /   0
[tb_pin] Currently allocated     0.00E+00 Mbytes, locked:    0 /   0

     iteration # 35     ecut=    60.00 Ry     beta= 0.70
     Davidson diagonalization with overlap

---- Real-time Memory Report at c_bands before calling an iterative solver
          1059 MiB given to the printing process from OS
           640 MiB allocation reported by mallinfo(arena+hblkhd)
       1887622 MiB available memory on the node where the printing process lives
     GPU memory used/free/total (MiB): 2295 / 180346 / 182642
------------------
     ethr =  1.00E-13,  avg # of iterations =  1.0

     total cpu time spent up to now is       23.3 secs

     total energy              =    -936.83170910 Ry
     estimated scf accuracy    <          4.7E-12 Ry
[tb_dev] Currently allocated     0.00E+00 Mbytes, locked:    0 /   0
[tb_pin] Currently allocated     0.00E+00 Mbytes, locked:    0 /   0

     iteration # 36     ecut=    60.00 Ry     beta= 0.70
     Davidson diagonalization with overlap

---- Real-time Memory Report at c_bands before calling an iterative solver
          1059 MiB given to the printing process from OS
           640 MiB allocation reported by mallinfo(arena+hblkhd)
       1887597 MiB available memory on the node where the printing process lives
     GPU memory used/free/total (MiB): 2295 / 180346 / 182642
------------------
     ethr =  1.00E-13,  avg # of iterations =  1.0

     total cpu time spent up to now is       23.7 secs

     total energy              =    -936.83170910 Ry
     estimated scf accuracy    <          3.1E-12 Ry
[tb_dev] Currently allocated     0.00E+00 Mbytes, locked:    0 /   0
[tb_pin] Currently allocated     0.00E+00 Mbytes, locked:    0 /   0

     iteration # 37     ecut=    60.00 Ry     beta= 0.70
     Davidson diagonalization with overlap

---- Real-time Memory Report at c_bands before calling an iterative solver
          1059 MiB given to the printing process from OS
           640 MiB allocation reported by mallinfo(arena+hblkhd)
       1887584 MiB available memory on the node where the printing process lives
     GPU memory used/free/total (MiB): 2295 / 180346 / 182642
------------------
     ethr =  1.00E-13,  avg # of iterations =  1.0

     total cpu time spent up to now is       24.1 secs

     End of self-consistent calculation

          k = 0.0000 0.0000 0.0000 (  5793 PWs)   bands (ev):

   -47.3857 -47.3723 -35.0939 -35.0914 -23.6730 -23.6730 -23.6144 -23.5278
   -23.5278 -23.4512  -9.9778  -9.3175  -9.3175  -8.4249  -8.2725  -8.2725
     2.4582   2.4582   2.6576   2.7310   2.7310   3.5570   4.7409   4.7409
     4.7592   5.5924   6.0937   6.0937   6.2156   6.2156   6.2831   6.3801
     6.8261   6.8261

     occupation numbers 
     1.0000   1.0000   1.0000   1.0000   1.0000   1.0000   1.0000   1.0000
     1.0000   1.0000   1.0000   1.0000   1.0000   1.0000   1.0000   1.0000
     1.0000   1.0000   1.0000   1.0000   1.0000   1.0000   1.0000   1.0000
     1.0000   1.0000   1.0000   1.0000   1.0000   1.0000   1.0000   1.0000
     1.0000   1.0000

          k =-0.0000-0.2026 0.0664 (  5778 PWs)   bands (ev):

   -47.3847 -47.3732 -35.0938 -35.0915 -23.6649 -23.6638 -23.6032 -23.5389
   -23.5380 -23.4621  -9.8740  -9.2613  -9.2571  -8.5011  -8.3738  -8.3535
     2.4169   2.5052   2.8236   2.9468   2.9786   3.6179   4.4363   4.5263
     4.5769   5.5683   5.8208   6.0770   6.0824   6.3501   6.3978   6.4807
     6.7022   6.7594

     occupation numbers 
     1.0000   1.0000   1.0000   1.0000   1.0000   1.0000   1.0000   1.0000
     1.0000   1.0000   1.0000   1.0000   1.0000   1.0000   1.0000   1.0000
     1.0000   1.0000   1.0000   1.0000   1.0000   1.0000   1.0000   1.0000
     1.0000   1.0000   1.0000   1.0000   1.0000   1.0000   1.0000   1.0000
     1.0000   1.0000

          k =-0.0000-0.4051 0.1329 (  5783 PWs)   bands (ev):

   -47.3823 -47.3756 -35.0933 -35.0920 -23.6412 -23.6381 -23.5731 -23.5683
   -23.5654 -23.4917  -9.5877  -9.1119  -9.0907  -8.7453  -8.6000  -8.5612
     2.5734   2.7200   3.0872   3.4375   3.4952   3.7417   3.7869   4.1592
     4.3483   5.0807   5.3482   5.6528   6.2765   6.4224   6.4304   6.5247
     6.6493   6.7658

     occupation numbers 
     1.0000   1.0000   1.0000   1.0000   1.0000   1.0000   1.0000   1.0000
     1.0000   1.0000   1.0000   1.0000   1.0000   1.0000   1.0000   1.0000
     1.0000   1.0000   1.0000   1.0000   1.0000   1.0000   1.0000   1.0000
     1.0000   1.0000   1.0000   1.0000   1.0000   1.0000   1.0000   1.0000
     1.0000   1.0000

          k = 0.0000 0.6077-0.1993 (  5782 PWs)   bands (ev):

   -47.3789 -47.3789 -35.0927 -35.0927 -23.6062 -23.6062 -23.6022 -23.6022
   -23.5322 -23.5322  -9.2010  -9.2010  -8.8765  -8.8765  -8.7898  -8.7898
     2.9260   2.9260   3.1860   3.1860   3.6494   3.6494   4.1167   4.1167
     4.5803   4.5803   4.9882   4.9882   6.4709   6.4709   6.5554   6.5554
     6.6424   6.6424

     occupation numbers 
     1.0000   1.0000   1.0000   1.0000   1.0000   1.0000   1.0000   1.0000
     1.0000   1.0000   1.0000   1.0000   1.0000   1.0000   1.0000   1.0000
     1.0000   1.0000   1.0000   1.0000   1.0000   1.0000   1.0000   1.0000
     1.0000   1.0000   1.0000   1.0000   1.0000   1.0000   1.0000   1.0000
     1.0000   1.0000

          k =-0.1754-0.1013 0.1329 (  5782 PWs)   bands (ev):

   -47.3845 -47.3734 -35.0937 -35.0916 -23.6755 -23.6561 -23.5931 -23.5603
   -23.5260 -23.4602  -9.8642  -9.2980  -9.1713  -8.6143  -8.3677  -8.3091
     2.4405   2.5217   2.6986   3.0180   3.0703   3.7696   4.0428   4.7139
     4.7572   5.5682   5.7510   5.9709   6.1433   6.1703   6.3011   6.4700
     6.7242   6.7694

     occupation numbers 
     1.0000   1.0000   1.0000   1.0000   1.0000   1.0000   1.0000   1.0000
     1.0000   1.0000   1.0000   1.0000   1.0000   1.0000   1.0000   1.0000
     1.0000   1.0000   1.0000   1.0000   1.0000   1.0000   1.0000   1.0000
     1.0000   1.0000   1.0000   1.0000   1.0000   1.0000   1.0000   1.0000
     1.0000   1.0000

          k =-0.1754-0.3039 0.1993 (  5781 PWs)   bands (ev):

   -47.3828 -47.3751 -35.0934 -35.0919 -23.6687 -23.6413 -23.5977 -23.5589
   -23.5354 -23.4736  -9.6930  -9.2237  -8.9962  -8.8557  -8.4693  -8.4274
     2.3998   2.6582   3.0115   3.2271   3.3841   3.5951   4.1052   4.3262
     4.6918   5.2463   5.5503   5.8979   6.0085   6.1550   6.3061   6.5083
     6.6101   6.7621

     occupation numbers 
     1.0000   1.0000   1.0000   1.0000   1.0000   1.0000   1.0000   1.0000
     1.0000   1.0000   1.0000   1.0000   1.0000   1.0000   1.0000   1.0000
     1.0000   1.0000   1.0000   1.0000   1.0000   1.0000   1.0000   1.0000
     1.0000   1.0000   1.0000   1.0000   1.0000   1.0000   1.0000   1.0000
     1.0000   1.0000

          k =-0.1754 0.7090-0.1329 (  5782 PWs)   bands (ev):

   -47.3800 -47.3778 -35.0929 -35.0925 -23.6449 -23.6350 -23.6127 -23.5638
   -23.5202 -23.5034  -9.3929  -9.2007  -9.0516  -8.7189  -8.7014  -8.6367
     2.5762   2.7762   3.0041   3.4515   3.6621   3.7307   3.9707   4.2487
     4.4529   4.8499   5.2601   5.5965   6.0931   6.3172   6.3595   6.4470
     6.6250   6.7189

     occupation numbers 
     1.0000   1.0000   1.0000   1.0000   1.0000   1.0000   1.0000   1.0000
     1.0000   1.0000   1.0000   1.0000   1.0000   1.0000   1.0000   1.0000
     1.0000   1.0000   1.0000   1.0000   1.0000   1.0000   1.0000   1.0000
     1.0000   1.0000   1.0000   1.0000   1.0000   1.0000   1.0000   1.0000
     1.0000   1.0000

          k =-0.1754 0.5064-0.0664 (  5786 PWs)   bands (ev):

   -47.3809 -47.3770 -35.0931 -35.0923 -23.6608 -23.6087 -23.6017 -23.5762
   -23.5429 -23.4894  -9.4917  -9.0693  -8.9827  -8.8726  -8.7961  -8.4856
     2.5028   2.9436   3.0694   3.1948   3.3985   3.8024   4.0464   4.2559
     4.5385   4.9705   5.2099   5.7934   6.0106   6.1599   6.4178   6.5643
     6.6291   6.7472

     occupation numbers 
     1.0000   1.0000   1.0000   1.0000   1.0000   1.0000   1.0000   1.0000
     1.0000   1.0000   1.0000   1.0000   1.0000   1.0000   1.0000   1.0000
     1.0000   1.0000   1.0000   1.0000   1.0000   1.0000   1.0000   1.0000
     1.0000   1.0000   1.0000   1.0000   1.0000   1.0000   1.0000   1.0000
     1.0000   1.0000

          k =-0.1754 0.3039 0.0000 (  5762 PWs)   bands (ev):

   -47.3834 -47.3745 -35.0935 -35.0918 -23.6694 -23.6382 -23.5812 -23.5694
   -23.5452 -23.4715  -9.7339  -9.2099  -9.1142  -8.6706  -8.5666  -8.3621
     2.4275   2.6316   2.9206   3.0459   3.4397   3.7669   3.9040   4.1505
     4.8082   5.4087   5.6827   5.8819   6.1231   6.2023   6.4040   6.5270
     6.5930   6.7937

     occupation numbers 
     1.0000   1.0000   1.0000   1.0000   1.0000   1.0000   1.0000   1.0000
     1.0000   1.0000   1.0000   1.0000   1.0000   1.0000   1.0000   1.0000
     1.0000   1.0000   1.0000   1.0000   1.0000   1.0000   1.0000   1.0000
     1.0000   1.0000   1.0000   1.0000   1.0000   1.0000   1.0000   1.0000
     1.0000   1.0000

          k =-0.3509-0.2026 0.2658 (  5801 PWs)   bands (ev):

   -47.3823 -47.3756 -35.0934 -35.0920 -23.6804 -23.6491 -23.6371 -23.5236
   -23.5207 -23.4646  -9.6978  -9.2584  -9.0900  -8.7814  -8.4212  -8.3862
     2.3891   2.5518   2.7600   2.8743   3.5087   3.8315   4.4267   4.6453
     5.0245   5.3230   5.5658   5.7096   5.7797   6.0895   6.1432   6.4261
     6.4269   6.6837

     occupation numbers 
     1.0000   1.0000   1.0000   1.0000   1.0000   1.0000   1.0000   1.0000
     1.0000   1.0000   1.0000   1.0000   1.0000   1.0000   1.0000   1.0000
     1.0000   1.0000   1.0000   1.0000   1.0000   1.0000   1.0000   1.0000
     1.0000   1.0000   1.0000   1.0000   1.0000   1.0000   1.0000   1.0000
     1.0000   1.0000

          k =-0.3509 0.8103-0.0664 (  5791 PWs)   bands (ev):

   -47.3809 -47.3770 -35.0931 -35.0923 -23.6730 -23.6652 -23.6388 -23.5324
   -23.4927 -23.4753  -9.5678  -9.2878  -9.1832  -8.5943  -8.5184  -8.4854
     2.3565   2.4794   2.6897   3.0350   3.7412   4.0756   4.2547   4.6871
     4.8792   5.2501   5.5106   5.6634   5.7855   5.9697   6.1249   6.3002
     6.4659   6.7018

     occupation numbers 
     1.0000   1.0000   1.0000   1.0000   1.0000   1.0000   1.0000   1.0000
     1.0000   1.0000   1.0000   1.0000   1.0000   1.0000   1.0000   1.0000
     1.0000   1.0000   1.0000   1.0000   1.0000   1.0000   1.0000   1.0000
     1.0000   1.0000   1.0000   1.0000   1.0000   1.0000   1.0000   1.0000
     1.0000   1.0000

          k =-0.3509 0.6077 0.0000 (  5794 PWs)   bands (ev):

   -47.3789 -47.3789 -35.0927 -35.0927 -23.6736 -23.6470 -23.6106 -23.5619
   -23.5042 -23.4820  -9.4170  -9.3242  -9.0300  -8.7549  -8.6639  -8.4783
     2.3621   2.5785   2.9775   3.3523   3.6451   3.7034   4.1815   4.5343
     4.7117   5.0960   5.4209   5.6052   5.9592   6.0089   6.1698   6.4498
     6.5193   6.7305

     occupation numbers 
     1.0000   1.0000   1.0000   1.0000   1.0000   1.0000   1.0000   1.0000
     1.0000   1.0000   1.0000   1.0000   1.0000   1.0000   1.0000   1.0000
     1.0000   1.0000   1.0000   1.0000   1.0000   1.0000   1.0000   1.0000
     1.0000   1.0000   1.0000   1.0000   1.0000   1.0000   1.0000   1.0000
     1.0000   1.0000

          k = 0.5263 0.3039-0.3987 (  5786 PWs)   bands (ev):

   -47.3812 -47.3767 -35.0932 -35.0923 -23.6831 -23.6767 -23.6495 -23.5206
   -23.4816 -23.4646  -9.6332  -9.3273  -9.2273  -8.5481  -8.4434  -8.4245
     2.3420   2.3770   2.5383   2.6993   4.0527   4.2850   4.5106   4.8878
     4.9942   5.0754   5.5048   5.5971   5.7786   5.8696   6.1247   6.2428
     6.3635   6.6387

     occupation numbers 
     1.0000   1.0000   1.0000   1.0000   1.0000   1.0000   1.0000   1.0000
     1.0000   1.0000   1.0000   1.0000   1.0000   1.0000   1.0000   1.0000
     1.0000   1.0000   1.0000   1.0000   1.0000   1.0000   1.0000   1.0000
     1.0000   1.0000   1.0000   1.0000   1.0000   1.0000   1.0000   1.0000
     1.0000   1.0000

          k =-0.0000 0.0000 0.1993 (  5763 PWs)   bands (ev):

   -47.3847 -47.3732 -35.0937 -35.0915 -23.6636 -23.6636 -23.6042 -23.5378
   -23.5378 -23.4629  -9.8836  -9.2535  -9.2535  -8.5413  -8.3498  -8.3498
     2.5511   2.5511   2.8069   2.9359   2.9359   3.6495   4.5445   4.5445
     4.5587   5.6974   5.7602   5.7602   5.9971   6.2163   6.2163   6.4285
     6.8422   6.8422

     occupation numbers 
     1.0000   1.0000   1.0000   1.0000   1.0000   1.0000   1.0000   1.0000
     1.0000   1.0000   1.0000   1.0000   1.0000   1.0000   1.0000   1.0000
     1.0000   1.0000   1.0000   1.0000   1.0000   1.0000   1.0000   1.0000
     1.0000   1.0000   1.0000   1.0000   1.0000   1.0000   1.0000   1.0000
     1.0000   1.0000

          k =-0.0000-0.2026 0.2658 (  5757 PWs)   bands (ev):

   -47.3834 -47.3745 -35.0935 -35.0918 -23.6696 -23.6356 -23.5829 -23.5672
   -23.5462 -23.4722  -9.7486  -9.1956  -9.1112  -8.7236  -8.5273  -8.3667
     2.4529   2.6990   2.9968   3.2452   3.3350   3.7991   4.0929   4.1623
     4.5934   5.1592   5.5969   5.8626   5.9136   6.2128   6.3876   6.4174
     6.7228   6.7694

     occupation numbers 
     1.0000   1.0000   1.0000   1.0000   1.0000   1.0000   1.0000   1.0000
     1.0000   1.0000   1.0000   1.0000   1.0000   1.0000   1.0000   1.0000
     1.0000   1.0000   1.0000   1.0000   1.0000   1.0000   1.0000   1.0000
     1.0000   1.0000   1.0000   1.0000   1.0000   1.0000   1.0000   1.0000
     1.0000   1.0000

          k =-0.0000 0.8103-0.0664 (  5784 PWs)   bands (ev):

   -47.3809 -47.3770 -35.0931 -35.0923 -23.6617 -23.6058 -23.5985 -23.5787
   -23.5448 -23.4893  -9.4994  -9.0655  -9.0182  -8.8618  -8.7625  -8.5011
     2.4620   2.8988   3.2774   3.4411   3.5465   3.8343   3.8806   4.2645
     4.4378   4.5558   5.2582   5.7538   6.0868   6.1743   6.4230   6.5015
     6.6131   6.6555

     occupation numbers 
     1.0000   1.0000   1.0000   1.0000   1.0000   1.0000   1.0000   1.0000
     1.0000   1.0000   1.0000   1.0000   1.0000   1.0000   1.0000   1.0000
     1.0000   1.0000   1.0000   1.0000   1.0000   1.0000   1.0000   1.0000
     1.0000   1.0000   1.0000   1.0000   1.0000   1.0000   1.0000   1.0000
     1.0000   1.0000

          k =-0.0000 0.6077 0.0000 (  5792 PWs)   bands (ev):

   -47.3801 -47.3778 -35.0929 -35.0925 -23.6428 -23.6360 -23.6155 -23.5616
   -23.5197 -23.5044  -9.3950  -9.2015  -9.0445  -8.7294  -8.7031  -8.6287
     2.6936   2.8534   2.9096   3.1449   3.5534   3.8071   4.0800   4.3644
     4.6759   4.8242   5.2691   5.4289   6.0857   6.3049   6.3573   6.4910
     6.5166   6.7412

     occupation numbers 
     1.0000   1.0000   1.0000   1.0000   1.0000   1.0000   1.0000   1.0000
     1.0000   1.0000   1.0000   1.0000   1.0000   1.0000   1.0000   1.0000
     1.0000   1.0000   1.0000   1.0000   1.0000   1.0000   1.0000   1.0000
     1.0000   1.0000   1.0000   1.0000   1.0000   1.0000   1.0000   1.0000
     1.0000   1.0000

          k =-0.0000 0.4051 0.0664 (  5774 PWs)   bands (ev):

   -47.3828 -47.3751 -35.0934 -35.0919 -23.6680 -23.6428 -23.5984 -23.5584
   -23.5348 -23.4737  -9.6882  -9.2319  -8.9775  -8.8661  -8.4784  -8.4178
     2.5045   2.6393   2.7631   3.2948   3.3093   3.5519   4.1050   4.4623
     4.6909   5.4519   5.5877   5.8581   6.0059   6.1330   6.2730   6.5144
     6.6020   6.7666

     occupation numbers 
     1.0000   1.0000   1.0000   1.0000   1.0000   1.0000   1.0000   1.0000
     1.0000   1.0000   1.0000   1.0000   1.0000   1.0000   1.0000   1.0000
     1.0000   1.0000   1.0000   1.0000   1.0000   1.0000   1.0000   1.0000
     1.0000   1.0000   1.0000   1.0000   1.0000   1.0000   1.0000   1.0000
     1.0000   1.0000

          k =-0.1754-0.1013 0.3322 (  5771 PWs)   bands (ev):

   -47.3828 -47.3751 -35.0934 -35.0919 -23.6677 -23.6409 -23.5970 -23.5597
   -23.5345 -23.4746  -9.7078  -9.2134  -8.9711  -8.8974  -8.4815  -8.4097
     2.5586   2.6787   3.0224   3.3085   3.3501   3.6019   4.1477   4.5051
     4.5657   5.1981   5.3772   5.8675   5.8997   6.0237   6.1210   6.4763
     6.6465   6.7668

     occupation numbers 
     1.0000   1.0000   1.0000   1.0000   1.0000   1.0000   1.0000   1.0000
     1.0000   1.0000   1.0000   1.0000   1.0000   1.0000   1.0000   1.0000
     1.0000   1.0000   1.0000   1.0000   1.0000   1.0000   1.0000   1.0000
     1.0000   1.0000   1.0000   1.0000   1.0000   1.0000   1.0000   1.0000
     1.0000   1.0000

          k =-0.1754 0.9116 0.0000 (  5787 PWs)   bands (ev):

   -47.3812 -47.3767 -35.0931 -35.0923 -23.6725 -23.6357 -23.6201 -23.5497
   -23.5215 -23.4775  -9.5779  -9.1562  -9.1195  -8.7496  -8.6470  -8.4309
     2.4257   2.7481   2.9524   3.3926   3.4827   3.8620   4.0564   4.4696
     4.7173   5.0066   5.4734   5.6121   5.8705   6.0097   6.1783   6.3962
     6.5376   6.6673

     occupation numbers 
     1.0000   1.0000   1.0000   1.0000   1.0000   1.0000   1.0000   1.0000
     1.0000   1.0000   1.0000   1.0000   1.0000   1.0000   1.0000   1.0000
     1.0000   1.0000   1.0000   1.0000   1.0000   1.0000   1.0000   1.0000
     1.0000   1.0000   1.0000   1.0000   1.0000   1.0000   1.0000   1.0000
     1.0000   1.0000

          k =-0.1754 0.7090 0.0664 (  5791 PWs)   bands (ev):

   -47.3789 -47.3789 -35.0927 -35.0927 -23.6641 -23.6631 -23.5853 -23.5838
   -23.4917 -23.4911  -9.3891  -9.3757  -8.9584  -8.8631  -8.5515  -8.5357
     2.4379   2.5504   3.0019   3.2420   3.6617   4.0216   4.0913   4.3723
     4.7369   5.0610   5.5247   5.6485   5.7510   6.0103   6.2088   6.3460
     6.5500   6.6599

     occupation numbers 
     1.0000   1.0000   1.0000   1.0000   1.0000   1.0000   1.0000   1.0000
     1.0000   1.0000   1.0000   1.0000   1.0000   1.0000   1.0000   1.0000
     1.0000   1.0000   1.0000   1.0000   1.0000   1.0000   1.0000   1.0000
     1.0000   1.0000   1.0000   1.0000   1.0000   1.0000   1.0000   1.0000
     1.0000   1.0000

          k =-0.1754 0.5064 0.1329 (  5773 PWs)   bands (ev):

   -47.3812 -47.3767 -35.0931 -35.0923 -23.6724 -23.6368 -23.6217 -23.5496
   -23.5207 -23.4771  -9.5649  -9.1575  -9.1136  -8.7492  -8.6568  -8.4234
     2.3937   2.7407   2.8262   3.1434   3.4932   3.8775   4.0277   4.6005
     4.7175   5.2537   5.4216   5.7163   5.9462   6.1373   6.2233   6.3582
     6.5339   6.7482

     occupation numbers 
     1.0000   1.0000   1.0000   1.0000   1.0000   1.0000   1.0000   1.0000
     1.0000   1.0000   1.0000   1.0000   1.0000   1.0000   1.0000   1.0000
     1.0000   1.0000   1.0000   1.0000   1.0000   1.0000   1.0000   1.0000
     1.0000   1.0000   1.0000   1.0000   1.0000   1.0000   1.0000   1.0000
     1.0000   1.0000

          k = 0.7017 0.4051-0.3322 (  5799 PWs)   bands (ev):

   -47.3809 -47.3770 -35.0931 -35.0923 -23.6721 -23.6650 -23.6390 -23.5314
   -23.4929 -23.4760  -9.5779  -9.2941  -9.1735  -8.5971  -8.5282  -8.4766
     2.4974   2.5481   2.6377   2.9571   3.8472   4.0121   4.3481   4.6412
     5.0579   5.1547   5.4879   5.5571   5.7647   5.9182   6.0699   6.1926
     6.3334   6.6965

     occupation numbers 
     1.0000   1.0000   1.0000   1.0000   1.0000   1.0000   1.0000   1.0000
     1.0000   1.0000   1.0000   1.0000   1.0000   1.0000   1.0000   1.0000
     1.0000   1.0000   1.0000   1.0000   1.0000   1.0000   1.0000   1.0000
     1.0000   1.0000   1.0000   1.0000   1.0000   1.0000   1.0000   1.0000
     1.0000   1.0000

          k = 0.7017 0.2026-0.2658 (  5794 PWs)   bands (ev):

   -47.3801 -47.3778 -35.0929 -35.0925 -23.6757 -23.6741 -23.6203 -23.5482
   -23.4819 -23.4773  -9.5088  -9.3701  -9.0997  -8.6902  -8.5138  -8.4582
     2.3574   2.3938   2.7640   3.2348   3.5303   4.2518   4.3974   4.5591
     5.0559   5.1753   5.3919   5.4975   5.7689   5.9316   6.1689   6.2407
     6.3921   6.6866

     occupation numbers 
     1.0000   1.0000   1.0000   1.0000   1.0000   1.0000   1.0000   1.0000
     1.0000   1.0000   1.0000   1.0000   1.0000   1.0000   1.0000   1.0000
     1.0000   1.0000   1.0000   1.0000   1.0000   1.0000   1.0000   1.0000
     1.0000   1.0000   1.0000   1.0000   1.0000   1.0000   1.0000   1.0000
     1.0000   1.0000

          k = 0.7017-0.0000-0.1993 (  5776 PWs)   bands (ev):

   -47.3789 -47.3789 -35.0927 -35.0927 -23.6637 -23.6637 -23.5849 -23.5849
   -23.4911 -23.4911  -9.3787  -9.3787  -8.9160  -8.9160  -8.5395  -8.5395
     2.4554   2.4554   3.1199   3.1199   3.7979   3.7979   4.2499   4.2499
     4.8774   4.8774   5.6252   5.6252   5.9400   5.9400   6.2961   6.2961
     6.6393   6.6393

     occupation numbers 
     1.0000   1.0000   1.0000   1.0000   1.0000   1.0000   1.0000   1.0000
     1.0000   1.0000   1.0000   1.0000   1.0000   1.0000   1.0000   1.0000
     1.0000   1.0000   1.0000   1.0000   1.0000   1.0000   1.0000   1.0000
     1.0000   1.0000   1.0000   1.0000   1.0000   1.0000   1.0000   1.0000
     1.0000   1.0000

          k = 0.5263 0.3039-0.1993 (  5783 PWs)   bands (ev):

   -47.3809 -47.3770 -35.0931 -35.0923 -23.6723 -23.6655 -23.6396 -23.5316
   -23.4926 -23.4757  -9.5686  -9.2903  -9.1784  -8.5994  -8.5196  -8.4806
     2.4264   2.5514   2.6355   2.8353   3.7941   4.0904   4.3576   4.6170
     5.0103   5.1154   5.5671   5.7819   5.8705   5.9336   6.1229   6.1649
     6.3327   6.7190

     occupation numbers 
     1.0000   1.0000   1.0000   1.0000   1.0000   1.0000   1.0000   1.0000
     1.0000   1.0000   1.0000   1.0000   1.0000   1.0000   1.0000   1.0000
     1.0000   1.0000   1.0000   1.0000   1.0000   1.0000   1.0000   1.0000
     1.0000   1.0000   1.0000   1.0000   1.0000   1.0000   1.0000   1.0000
     1.0000   1.0000

          k =-0.0000 0.0000 0.3987 (  5782 PWs)   bands (ev):

   -47.3823 -47.3756 -35.0933 -35.0920 -23.6377 -23.6377 -23.5757 -23.5650
   -23.5650 -23.4941  -9.6203  -9.0750  -9.0750  -8.8482  -8.5547  -8.5547
     2.8655   2.8655   3.1794   3.4669   3.4669   3.9755   4.0196   4.0196
     4.1156   5.0537   5.0537   5.3459   5.9535   6.3032   6.3032   6.3998
     6.7477   6.7477

     occupation numbers 
     1.0000   1.0000   1.0000   1.0000   1.0000   1.0000   1.0000   1.0000
     1.0000   1.0000   1.0000   1.0000   1.0000   1.0000   1.0000   1.0000
     1.0000   1.0000   1.0000   1.0000   1.0000   1.0000   1.0000   1.0000
     1.0000   1.0000   1.0000   1.0000   1.0000   1.0000   1.0000   1.0000
     1.0000   1.0000

          k =-0.0000 1.0129 0.0664 (  5783 PWs)   bands (ev):

   -47.3809 -47.3770 -35.0930 -35.0923 -23.6601 -23.6055 -23.5981 -23.5769
   -23.5457 -23.4905  -9.5190  -9.0724  -8.9977  -8.8766  -8.7730  -8.4903
     2.6399   3.0598   3.2895   3.4866   3.5154   3.8280   3.9818   4.2862
     4.4420   4.4600   5.1183   5.5692   5.9262   5.9506   6.3920   6.4930
     6.5810   6.6306

     occupation numbers 
     1.0000   1.0000   1.0000   1.0000   1.0000   1.0000   1.0000   1.0000
     1.0000   1.0000   1.0000   1.0000   1.0000   1.0000   1.0000   1.0000
     1.0000   1.0000   1.0000   1.0000   1.0000   1.0000   1.0000   1.0000
     1.0000   1.0000   1.0000   1.0000   1.0000   1.0000   1.0000   1.0000
     1.0000   1.0000

          k =-0.0000 0.8103 0.1329 (  5803 PWs)   bands (ev):

   -47.3790 -47.3789 -35.0927 -35.0927 -23.6736 -23.6447 -23.6122 -23.5593
   -23.5060 -23.4822  -9.4255  -9.3438  -9.0174  -8.7455  -8.6650  -8.4869
     2.3999   2.8619   2.8765   3.3448   3.6627   3.6730   4.3850   4.4501
     4.8227   5.0094   5.4146   5.4314   5.7121   5.9985   6.2077   6.2763
     6.4222   6.7047

     occupation numbers 
     1.0000   1.0000   1.0000   1.0000   1.0000   1.0000   1.0000   1.0000
     1.0000   1.0000   1.0000   1.0000   1.0000   1.0000   1.0000   1.0000
     1.0000   1.0000   1.0000   1.0000   1.0000   1.0000   1.0000   1.0000
     1.0000   1.0000   1.0000   1.0000   1.0000   1.0000   1.0000   1.0000
     1.0000   1.0000

          k = 0.8772 0.5064-0.2658 (  5787 PWs)   bands (ev):

   -47.3801 -47.3778 -35.0929 -35.0925 -23.6423 -23.6340 -23.6129 -23.5611
   -23.5213 -23.5057  -9.4255  -9.2213  -9.0248  -8.7225  -8.7184  -8.6207
     2.9022   2.9908   3.0024   3.5460   3.6340   3.7940   3.9305   4.2493
     4.5831   4.7067   5.0208   5.2442   5.9993   6.0790   6.2511   6.4283
     6.4667   6.6795

     occupation numbers 
     1.0000   1.0000   1.0000   1.0000   1.0000   1.0000   1.0000   1.0000
     1.0000   1.0000   1.0000   1.0000   1.0000   1.0000   1.0000   1.0000
     1.0000   1.0000   1.0000   1.0000   1.0000   1.0000   1.0000   1.0000
     1.0000   1.0000   1.0000   1.0000   1.0000   1.0000   1.0000   1.0000
     1.0000   1.0000

          k = 0.8772 0.3039-0.1993 (  5806 PWs)   bands (ev):

   -47.3790 -47.3790 -35.0927 -35.0927 -23.6629 -23.6629 -23.5840 -23.5840
   -23.4919 -23.4919  -9.3946  -9.3946  -8.9061  -8.9061  -8.5439  -8.5439
     2.5793   2.5793   3.1384   3.1384   3.8977   3.8977   4.1876   4.1876
     4.9527   4.9527   5.4389   5.4389   5.8029   5.8029   6.1954   6.1954
     6.5838   6.5838

     occupation numbers 
     1.0000   1.0000   1.0000   1.0000   1.0000   1.0000   1.0000   1.0000
     1.0000   1.0000   1.0000   1.0000   1.0000   1.0000   1.0000   1.0000
     1.0000   1.0000   1.0000   1.0000   1.0000   1.0000   1.0000   1.0000
     1.0000   1.0000   1.0000   1.0000   1.0000   1.0000   1.0000   1.0000
     1.0000   1.0000

          k = 0.0000 0.0000-0.5980 (  5782 PWs)   bands (ev):

   -47.3790 -47.3790 -35.0927 -35.0927 -23.6017 -23.6017 -23.6017 -23.6017
   -23.5356 -23.5356  -9.2450  -9.2450  -8.8213  -8.8213  -8.8213  -8.8213
     3.3828   3.3828   3.3828   3.3828   3.6329   3.6329   4.2285   4.2285
     4.2285   4.2285   4.5859   4.5859   6.2276   6.2276   6.5268   6.5268
     6.5268   6.5268

     occupation numbers 
     1.0000   1.0000   1.0000   1.0000   1.0000   1.0000   1.0000   1.0000
     1.0000   1.0000   1.0000   1.0000   1.0000   1.0000   1.0000   1.0000
     1.0000   1.0000   1.0000   1.0000   1.0000   1.0000   1.0000   1.0000
     1.0000   1.0000   1.0000   1.0000   1.0000   1.0000   1.0000   1.0000
     1.0000   1.0000

     highest occupied level (ev):     6.8422

!    total energy              =    -936.83170910 Ry
     estimated scf accuracy    <          1.6E-13 Ry

     The total energy is the sum of the following terms:
     one-electron contribution =    -145.00085628 Ry
     hartree contribution      =     106.10961899 Ry
     xc contribution           =    -108.04809447 Ry
     ewald contribution        =    -326.43842421 Ry
     one-center paw contrib.   =    -463.45395314 Ry
      -> PAW hartree energy AE =     291.43664831 Ry
      -> PAW hartree energy PS =    -289.92550461 Ry
      -> PAW xc energy AE      =    -560.40110715 Ry
      -> PAW xc energy PS      =      95.43601031 Ry
      -> total E_H with PAW    =     107.62076269 Ry
      -> total E_XC with PAW   =    -573.01319131 Ry

     convergence has been achieved in  37 iterations

     Forces acting on atoms (cartesian axes, Ry/au):

     atom    1 type  1   force =     0.00000000    0.00000000   -0.00090710
     atom    2 type  1   force =     0.00000000    0.00000000   -0.00090710
     atom    3 type  2   force =     0.01737041   -0.00520292   -0.00446213
     atom    4 type  2   force =    -0.00417935    0.01764468   -0.00446213
     atom    5 type  2   force =    -0.01319107   -0.01244176   -0.00446213
     atom    6 type  2   force =     0.00417935    0.01764468   -0.00446213
     atom    7 type  2   force =    -0.01737041   -0.00520292   -0.00446213
     atom    8 type  2   force =     0.01319107   -0.01244176   -0.00446213
     atom    9 type  3   force =    -0.00000000   -0.00000000    0.01429348
     atom   10 type  3   force =    -0.00000000   -0.00000000    0.01429348
     The non-local contrib.  to forces
     atom    1 type  1   force =    -0.00000000   -0.00000000    0.00678898
     atom    2 type  1   force =    -0.00000000   -0.00000000    0.00678898
     atom    3 type  2   force =     0.33135777   -0.20182498   -0.03948520
     atom    4 type  2   force =     0.00910667    0.38787674   -0.03948520
     atom    5 type  2   force =    -0.34046444   -0.18605176   -0.03948520
     atom    6 type  2   force =    -0.00910667    0.38787674   -0.03948520
     atom    7 type  2   force =    -0.33135777   -0.20182498   -0.03948520
     atom    8 type  2   force =     0.34046444   -0.18605176   -0.03948520
     atom    9 type  3   force =    -0.00000000    0.00000000   -0.00830846
     atom   10 type  3   force =    -0.00000000    0.00000000   -0.00830846
     The ionic contribution  to forces
     atom    1 type  1   force =     0.00000000   -0.00000000   -1.14035749
     atom    2 type  1   force =    -0.00000000   -0.00000000   -1.14035749
     atom    3 type  2   force =    -3.52856975    2.71258406    0.33511251
     atom    4 type  2   force =    -0.58488183   -4.41212308    0.33511251
     atom    5 type  2   force =     4.11345159    1.69953901    0.33511251
     atom    6 type  2   force =     0.58488183   -4.41212308    0.33511251
     atom    7 type  2   force =     3.52856975    2.71258406    0.33511251
     atom    8 type  2   force =    -4.11345159    1.69953901    0.33511251
     atom    9 type  3   force =     0.00000000   -0.00000000    0.13501996
     atom   10 type  3   force =     0.00000000    0.00000000    0.13501996
     The local contribution  to forces
     atom    1 type  1   force =     0.00000000   -0.00000000    1.13266142
     atom    2 type  1   force =     0.00000000    0.00000000    1.13266142
     atom    3 type  2   force =     3.21613469   -2.51775405   -0.29999907
     atom    4 type  2   force =     0.57237162    4.04413138   -0.29999907
     atom    5 type  2   force =    -3.78850631   -1.52637732   -0.29999907
     atom    6 type  2   force =    -0.57237163    4.04413137   -0.29999907
     atom    7 type  2   force =    -3.21613470   -2.51775405   -0.29999907
     atom    8 type  2   force =     3.78850631   -1.52637732   -0.29999907
     atom    9 type  3   force =     0.00000000    0.00000000   -0.10774094
     atom   10 type  3   force =    -0.00000000    0.00000000   -0.10774094
     The core correction contribution to forces
     atom    1 type  1   force =     0.00000000    0.00000000    0.00000000
     atom    2 type  1   force =     0.00000000    0.00000000    0.00000000
     atom    3 type  2   force =    -0.00155217    0.00179200   -0.00009036
     atom    4 type  2   force =    -0.00077583   -0.00224021   -0.00009036
     atom    5 type  2   force =     0.00232800    0.00044822   -0.00009036
     atom    6 type  2   force =     0.00077583   -0.00224021   -0.00009036
     atom    7 type  2   force =     0.00155217    0.00179200   -0.00009036
     atom    8 type  2   force =    -0.00232800    0.00044822   -0.00009036
     atom    9 type  3   force =     0.00000000    0.00000000   -0.00467704
     atom   10 type  3   force =    -0.00000000   -0.00000000   -0.00467704
     The Hubbard contrib.    to forces
     atom    1 type  1   force =     0.00000000    0.00000000    0.00000000
     atom    2 type  1   force =     0.00000000    0.00000000    0.00000000
     atom    3 type  2   force =     0.00000000    0.00000000    0.00000000
     atom    4 type  2   force =     0.00000000    0.00000000    0.00000000
     atom    5 type  2   force =     0.00000000    0.00000000    0.00000000
     atom    6 type  2   force =     0.00000000    0.00000000    0.00000000
     atom    7 type  2   force =     0.00000000    0.00000000    0.00000000
     atom    8 type  2   force =     0.00000000    0.00000000    0.00000000
     atom    9 type  3   force =     0.00000000    0.00000000    0.00000000
     atom   10 type  3   force =     0.00000000    0.00000000    0.00000000
     The SCF correction term to forces
     atom    1 type  1   force =     0.00000000   -0.00000000   -0.00000000
     atom    2 type  1   force =    -0.00000000   -0.00000000   -0.00000000
     atom    3 type  2   force =    -0.00000013    0.00000004   -0.00000000
     atom    4 type  2   force =     0.00000003   -0.00000014   -0.00000000
     atom    5 type  2   force =     0.00000010    0.00000009   -0.00000000
     atom    6 type  2   force =    -0.00000003   -0.00000014   -0.00000000
     atom    7 type  2   force =     0.00000013    0.00000004   -0.00000000
     atom    8 type  2   force =    -0.00000010    0.00000009   -0.00000000
     atom    9 type  3   force =    -0.00000000   -0.00000000   -0.00000003
     atom   10 type  3   force =    -0.00000000   -0.00000000   -0.00000003

     Total force =     0.050025     Total SCF correction =     0.000000


     Computing stress (Cartesian axis) and pressure

          total   stress  (Ry/bohr**3)                   (kbar)     P=      -77.70
  -0.00062023  -0.00000000  -0.00000000          -91.24       -0.00       -0.00
  -0.00000000  -0.00062023  -0.00000000           -0.00      -91.24       -0.00
  -0.00000000  -0.00000000  -0.00034407           -0.00       -0.00      -50.61

     kinetic stress (kbar)  25623.39     -0.00      0.00
                                0.00  25623.39      0.00
                                0.00      0.00  25616.76

     local   stress (kbar) -13015.62     -0.00     -0.00
                               -0.00 -13015.62     -0.00
                               -0.00     -0.00 -10602.33

     nonloc. stress (kbar)   6697.82     -0.00      0.00
                               -0.00   6697.82      0.00
                               -0.00      0.00   6744.10

     hartree stress (kbar)   7263.85      0.00     -0.00
                                0.00   7263.85      0.00
                               -0.00      0.00   6647.41

     exc-cor stress (kbar)   1053.16      0.00     -0.00
                                0.00   1053.16      0.00
                               -0.00      0.00   1049.69

     corecor stress (kbar)  -6596.52     -0.00     -0.00
                               -0.00  -6596.52     -0.00
                               -0.00     -0.00  -6597.24

     ewald   stress (kbar) -21117.33      0.00      0.00
                                0.00 -21117.33      0.00
                                0.00      0.00 -22909.00

     hubbard stress (kbar)      0.00      0.00      0.00
                                0.00      0.00      0.00
                                0.00      0.00      0.00

     DFT-D   stress (kbar)      0.00      0.00      0.00
                                0.00      0.00      0.00
                                0.00      0.00      0.00

     XDM     stress (kbar)      0.00      0.00      0.00
                                0.00      0.00      0.00
                                0.00      0.00      0.00

     dft-nl  stress (kbar)      0.00      0.00      0.00
                                0.00      0.00      0.00
                                0.00      0.00      0.00

     TS-vdW  stress (kbar)      0.00      0.00      0.00
                                0.00      0.00      0.00
                                0.00      0.00      0.00

     MDB     stress (kbar)      0.00      0.00      0.00
                                0.00      0.00      0.00
                                0.00      0.00      0.00

     3D-RISM stress (kbar)      0.00      0.00      0.00
                                0.00      0.00      0.00
                                0.00      0.00      0.00

     Message from routine punch:
     Nothing written, as per user request (disk_io='none')
 
     init_run     :      0.66s CPU      0.94s WALL (       1 calls)
     electrons    :     22.19s CPU     22.71s WALL (       1 calls)
     forces       :      0.08s CPU      0.09s WALL (       1 calls)
     stress       :      0.17s CPU      0.30s WALL (       1 calls)

     Called by init_run:
     wfcinit      :      0.20s CPU      0.30s WALL (       1 calls)
     wfcinit:atom :      0.03s CPU      0.03s WALL (      32 calls)
     wfcinit:wfcr :      0.13s CPU      0.21s WALL (      32 calls)
     potinit      :      0.11s CPU      0.13s WALL (       1 calls)
     hinit0       :      0.27s CPU      0.29s WALL (       1 calls)

     Called by electrons:
     c_bands      :     16.11s CPU     16.40s WALL (      37 calls)
     sum_band     :      2.54s CPU      2.58s WALL (      37 calls)
     v_of_rho     :      0.14s CPU      0.20s WALL (      38 calls)
     v_h          :      0.05s CPU      0.09s WALL (      38 calls)
     v_xc         :      0.09s CPU      0.11s WALL (      40 calls)
     newd         :      0.34s CPU      0.38s WALL (      38 calls)
     PAW_pot      :      2.76s CPU      2.83s WALL (      38 calls)
     mix_rho      :      0.26s CPU      0.27s WALL (      37 calls)

     Called by c_bands:
     init_us_2    :      0.80s CPU      0.81s WALL (    2464 calls)
     cegterg      :     14.40s CPU     14.67s WALL (    1184 calls)

     Called by sum_band:
     sum_band:wei :      0.00s CPU      0.00s WALL (      37 calls)
     sum_band:loo :      1.93s CPU      1.97s WALL (      37 calls)
     sum_band:buf :      0.32s CPU      0.34s WALL (    1184 calls)
     sum_band:ini :      0.38s CPU      0.38s WALL (    1184 calls)
     sum_band:cal :      0.02s CPU      0.02s WALL (    1184 calls)
     sum_band:bec :      0.44s CPU      0.45s WALL (    1184 calls)
     addusdens    :      0.39s CPU      0.39s WALL (      37 calls)
                                        0.39s GPU  (      37 calls)
     addusd:skk   :      0.01s CPU      0.01s WALL (     111 calls)
                                        0.01s GPU  (     111 calls)

     Called by *egterg:
     cdiaghg      :      6.27s CPU      6.42s WALL (    5486 calls)
                                        6.37s GPU  (    5486 calls)
     cegterg:over :      0.40s CPU      0.41s WALL (    4302 calls)
     cegterg:upda :      1.25s CPU      1.26s WALL (    4302 calls)
     cegterg:last :      0.16s CPU      0.16s WALL (    2843 calls)
     h_psi        :      4.19s CPU      4.42s WALL (    5518 calls)
     s_psi        :      1.43s CPU      1.45s WALL (    5518 calls)
     g_psi        :      0.08s CPU      0.08s WALL (    4302 calls)

     Called by h_psi:
     h_psi:calbec :      0.11s CPU      0.14s WALL (    5518 calls)
     vloc_psi     :      2.72s CPU      2.96s WALL (    5518 calls)
                                        2.91s GPU  (    5518 calls)
     add_vuspsi   :      1.19s CPU      1.22s WALL (    5518 calls)

     General routines
     calbec       :      0.13s CPU      0.16s WALL (    7246 calls)
     fft          :      0.05s CPU      0.08s WALL (     517 calls)
                                        0.03s GPU  (     479 calls)
     ffts         :      0.02s CPU      0.02s WALL (      75 calls)
                                        0.00s GPU  (      37 calls)
     fftw         :      0.20s CPU      1.81s WALL (   26294 calls)
                                        1.56s GPU  (   26294 calls)
     interpolate  :      0.09s CPU      0.14s WALL (      38 calls)
 
     Parallel routines

     PAW routines
     PAW_pot      :      2.76s CPU      2.83s WALL (      38 calls)
     PAW_symme    :      0.00s CPU      0.01s WALL (      75 calls)
 
     PWSCF        :     23.54s CPU     24.49s WALL

 
   This run was terminated on:  17: 6:28  29Nov2025            

=------------------------------------------------------------------------------=
   JOB DONE.
=------------------------------------------------------------------------------=
