
     Program PWSCF v.7.5 starts on 29Nov2025 at 17: 5:38 

     This program is part of the open-source Quantum ESPRESSO suite
     for quantum simulation of materials; please cite
         "P. Giannozzi et al., J. Phys.:Condens. Matter 21 395502 (2009);
         "P. Giannozzi et al., J. Phys.:Condens. Matter 29 465901 (2017);
         "P. Giannozzi et al., J. Chem. Phys. 152 154105 (2020);
          URL http://www.quantum-espresso.org", 
     in publications or presentations arising from this work. More details at
     http://www.quantum-espresso.org/quote

     Parallel version (MPI & OpenMP), running on       1 processor cores
     Number of MPI processes:                 1
     Threads/MPI process:                     1

     MPI processes distributed on     1 nodes
     1899851 MiB available memory on the printing compute node when the environment starts
 
     Reading input from espresso.pwi
Warning: card &CELL ignored
Warning: card &FCP ignored
Warning: card &RISM ignored

     Current dimensions of program PWSCF are:
     Max number of different atomic species (ntypx) = 10
     Max number of k-points (npk) =  40000
     Max angular momentum in pseudopotentials (lmaxx) =  4
     file O.pbesol-n-kjpaw_psl.0.1.UPF: wavefunction(s)  2P renormalized
     file Nb.pbesol-spn-kjpaw_psl.0.3.0.UPF: wavefunction(s)  4S 4P renormalized
     Message from routine setup:
     using ibrav=0 with symmetry is DISCOURAGED, use correct ibrav instead
 
     Subspace diagonalization in iterative solution of the eigenvalue problem:
     a serial algorithm will be used

 
     G-vector sticks info
     --------------------
     sticks:   dense  smooth     PW     G-vecs:    dense   smooth      PW
     Sum        2767    1659    485                92887    43105    6869
 
     Using Slab Decomposition
 


     bravais-lattice index     =            0
     lattice parameter (alat)  =      10.2449  a.u.
     unit-cell volume          =     687.4831 (a.u.)^3
     number of atoms/cell      =           10
     number of atomic types    =            3
     number of electrons       =        68.00
     number of Kohn-Sham states=           34
     kinetic-energy cutoff     =      60.0000  Ry
     charge density cutoff     =     400.0000  Ry
     scf convergence threshold =      1.0E-12
     mixing beta               =       0.7000
     number of iterations used =            8  plain     mixing
     Exchange-correlation= SLA  PW   PSX  PSC
                           (   1   4  10   8   0   0   0)

     GPU acceleration is ACTIVE.  1 visible GPUs per MPI rank


     GPU used by master process:

        Device Number: 0
        Device name: NVIDIA B200
        Compute capability : 100
        Ratio of single to double precision performance  : 16
        Memory Clock Rate (KHz): 3996000
        Memory Bus Width (bits): 7680
        Peak Memory Bandwidth (GB/s): ******

     celldm(1)=  10.244863  celldm(2)=   0.000000  celldm(3)=   0.000000
     celldm(4)=   0.000000  celldm(5)=   0.000000  celldm(6)=   0.000000

     crystal axes: (cart. coord. in units of alat)
               a(1) = (   0.468445   0.270457   0.841078 )  
               a(2) = (  -0.468445   0.270457   0.841078 )  
               a(3) = (   0.000000  -0.540913   0.841078 )  

     reciprocal axes: (cart. coord. in units 2 pi/alat)
               b(1) = (  1.067362  0.616242  0.396317 )  
               b(2) = ( -1.067362  0.616242  0.396317 )  
               b(3) = (  0.000000 -1.232483  0.396317 )  


     PseudoPot. # 1 for Li read from file:
     /home/qhossain/SSSP_1.3.0_PBEsol_efficiency/li_pbesol_v1.4.uspp.F.UPF
     MD5 check sum: aa28d9aeea6a965f2dc95ee9517b3536
     Pseudo is Ultrasoft, Zval =  3.0
     Generated by new atomic code, or converted to UPF format
     Using radial grid of  751 points,  5 beta functions with: 
                l(1) =   0
                l(2) =   0
                l(3) =   0
                l(4) =   1
                l(5) =   1
     Q(r) pseudized with 10 coefficients,  rinner =    1.150   1.150   1.150


     PseudoPot. # 2 for O  read from file:
     /home/qhossain/SSSP_1.3.0_PBEsol_efficiency/O.pbesol-n-kjpaw_psl.0.1.UPF
     MD5 check sum: 81d73d1479e654e5638b0319f0d6c2c7
     Pseudo is Projector augmented-wave + core cor, Zval =  6.0
     Generated using "atomic" code by A. Dal Corso  v.6.0 svn rev. 13079
     Shape of augmentation charge: BESSEL
     Using radial grid of 1095 points,  4 beta functions with: 
                l(1) =   0
                l(2) =   0
                l(3) =   1
                l(4) =   1
     Q(r) pseudized with 0 coefficients 


     PseudoPot. # 3 for Nb read from file:
     /home/qhossain/SSSP_1.3.0_PBEsol_efficiency/Nb.pbesol-spn-kjpaw_psl.0.3.0.UPF
     MD5 check sum: 3501bca1474143575298708b2d32ca28
     Pseudo is Projector augmented-wave + core cor, Zval = 13.0
     Generated using "atomic" code by A. Dal Corso  v.6.0 svn rev. 13079
     Shape of augmentation charge: PSQ
     Using radial grid of 1227 points,  6 beta functions with: 
                l(1) =   0
                l(2) =   0
                l(3) =   1
                l(4) =   1
                l(5) =   2
                l(6) =   2
     Q(r) pseudized with 0 coefficients 


     atomic species   valence    mass     pseudopotential
     Li                3.00     6.94000     Li( 1.00)
     O                 6.00    15.99900     O ( 1.00)
     Nb               13.00    92.90637     Nb( 1.00)

      6 Sym. Ops. (no inversion) found ( 3 have fractional translation)


                                    s                        frac. trans.

      isym =  1     identity                                     

 cryst.   s( 1) = (     1          0          0      )
                  (     0          1          0      )
                  (     0          0          1      )

 cart.    s( 1) = (  1.0000000  0.0000000 -0.0000000 )
                  ( -0.0000000  1.0000000  0.0000000 )
                  ( -0.0000000  0.0000000  1.0000000 )


      isym =  2     120 deg rotation - cryst. axis [0,0,1]       

 cryst.   s( 2) = (     0          1          0      )
                  (     0          0          1      )
                  (     1          0          0      )

 cart.    s( 2) = ( -0.5000000 -0.8660254 -0.0000000 )
                  (  0.8660254 -0.5000000 -0.0000000 )
                  (  0.0000000 -0.0000000  1.0000000 )


      isym =  3     120 deg rotation - cryst. axis [0,0,-1]      

 cryst.   s( 3) = (     0          0          1      )
                  (     1          0          0      )
                  (     0          1          0      )

 cart.    s( 3) = ( -0.5000000  0.8660254  0.0000000 )
                  ( -0.8660254 -0.5000000 -0.0000000 )
                  (  0.0000000 -0.0000000  1.0000000 )


      isym =  4     inv. 180 deg rotation - cart. axis [1,0,0]   

 cryst.   s( 4) = (     0          1          0      )    f =( -0.5000000 )
                  (     1          0          0      )       ( -0.5000000 )
                  (     0          0          1      )       ( -0.5000000 )

 cart.    s( 4) = ( -1.0000000  0.0000000 -0.0000000 )    f =( -0.0000000 )
                  (  0.0000000  1.0000000  0.0000000 )       ( -0.0000000 )
                  (  0.0000000  0.0000000  1.0000000 )       ( -1.2616176 )


      isym =  5     inv. 180 deg rotation - cryst. axis [0,1,0]  

 cryst.   s( 5) = (     1          0          0      )    f =( -0.5000000 )
                  (     0          0          1      )       ( -0.5000000 )
                  (     0          1          0      )       ( -0.5000000 )

 cart.    s( 5) = (  0.5000000  0.8660254  0.0000000 )    f =(  0.0000000 )
                  (  0.8660254 -0.5000000 -0.0000000 )       ( -0.0000000 )
                  ( -0.0000000 -0.0000000  1.0000000 )       ( -1.2616176 )


      isym =  6     inv. 180 deg rotation - cryst. axis [1,1,0]  

 cryst.   s( 6) = (     0          0          1      )    f =( -0.5000000 )
                  (     0          1          0      )       ( -0.5000000 )
                  (     1          0          0      )       ( -0.5000000 )

 cart.    s( 6) = (  0.5000000 -0.8660254 -0.0000000 )    f =( -0.0000000 )
                  ( -0.8660254 -0.5000000 -0.0000000 )       ( -0.0000000 )
                  (  0.0000000 -0.0000000  1.0000000 )       ( -1.2616176 )


   Cartesian axes

     site n.     atom                  positions (alat units)
         1        Li     tau(   1) = (   0.0000000  -0.0000000   1.9767754  )
         2        Li     tau(   2) = (  -0.0000000  -0.0000000   0.7151579  )
         3        O      tau(   3) = (  -0.3002641  -0.0382953   1.4284135  )
         4        O      tau(   4) = (   0.1832967  -0.2408887   1.4284135  )
         5        O      tau(   5) = (   0.1169674   0.2791840   1.4284135  )
         6        O      tau(   6) = (   0.2851479   0.0295679   1.0078744  )
         7        O      tau(   7) = (  -0.1681805   0.2321613   1.0078744  )
         8        O      tau(   8) = (  -0.1169674  -0.2617293   1.0078744  )
         9        Nb     tau(   9) = (  -0.0000000  -0.0000000   1.2643329  )
        10        Nb     tau(  10) = (  -0.0000000  -0.0000000   0.0027153  )

   Crystallographic axes

     site n.     atom                  positions (cryst. coord.)
         1        Li     tau(   1) = (  0.7834289  0.7834289  0.7834289  )
         2        Li     tau(   2) = (  0.2834289  0.2834289  0.2834289  )
         3        O      tau(   3) = (  0.2220144  0.8629954  0.6133023  )
         4        O      tau(   4) = (  0.6133023  0.2220144  0.8629954  )
         5        O      tau(   5) = (  0.8629954  0.6133023  0.2220144  )
         6        O      tau(   6) = (  0.7220144  0.1133023  0.3629954  )
         7        O      tau(   7) = (  0.3629954  0.7220144  0.1133023  )
         8        O      tau(   8) = (  0.1133023  0.3629954  0.7220144  )
         9        Nb     tau(   9) = (  0.5010761  0.5010761  0.5010761  )
        10        Nb     tau(  10) = (  0.0010761  0.0010761  0.0010761  )

     number of k points=    32
                       cart. coord. in units 2pi/alat
        k(    1) = (   0.0000000   0.0000000   0.0000000), wk =   0.0092593
        k(    2) = (   0.0000000  -0.2054139   0.0660528), wk =   0.0555556
        k(    3) = (   0.0000000  -0.4108278   0.1321055), wk =   0.0555556
        k(    4) = (  -0.0000000   0.6162417  -0.1981583), wk =   0.0277778
        k(    5) = (  -0.1778937  -0.1027070   0.1321055), wk =   0.0555556
        k(    6) = (  -0.1778937  -0.3081209   0.1981583), wk =   0.1111111
        k(    7) = (  -0.1778937   0.7189487  -0.1321055), wk =   0.1111111
        k(    8) = (  -0.1778937   0.5135348  -0.0660528), wk =   0.1111111
        k(    9) = (  -0.1778937   0.3081209   0.0000000), wk =   0.0555556
        k(   10) = (  -0.3557873  -0.2054139   0.2642111), wk =   0.0555556
        k(   11) = (  -0.3557873   0.8216556  -0.0660528), wk =   0.1111111
        k(   12) = (  -0.3557873   0.6162417   0.0000000), wk =   0.0555556
        k(   13) = (   0.5336810   0.3081209  -0.3963166), wk =   0.0277778
        k(   14) = (  -0.0000000  -0.0000000   0.1981583), wk =   0.0185185
        k(   15) = (  -0.0000000  -0.2054139   0.2642111), wk =   0.0555556
        k(   16) = (  -0.0000000   0.8216556  -0.0660528), wk =   0.0555556
        k(   17) = (  -0.0000000   0.6162417   0.0000000), wk =   0.0555556
        k(   18) = (  -0.0000000   0.4108278   0.0660528), wk =   0.0555556
        k(   19) = (  -0.1778937  -0.1027070   0.3302638), wk =   0.0555556
        k(   20) = (  -0.1778937   0.9243626   0.0000000), wk =   0.1111111
        k(   21) = (  -0.1778937   0.7189487   0.0660528), wk =   0.1111111
        k(   22) = (  -0.1778937   0.5135348   0.1321055), wk =   0.1111111
        k(   23) = (   0.7115747   0.4108278  -0.3302638), wk =   0.0555556
        k(   24) = (   0.7115747   0.2054139  -0.2642111), wk =   0.1111111
        k(   25) = (   0.7115747  -0.0000000  -0.1981583), wk =   0.0555556
        k(   26) = (   0.5336810   0.3081209  -0.1981583), wk =   0.0555556
        k(   27) = (  -0.0000000  -0.0000000   0.3963166), wk =   0.0185185
        k(   28) = (  -0.0000000   1.0270696   0.0660528), wk =   0.0555556
        k(   29) = (  -0.0000000   0.8216556   0.1321055), wk =   0.0555556
        k(   30) = (   0.8894683   0.5135348  -0.2642111), wk =   0.0555556
        k(   31) = (   0.8894683   0.3081209  -0.1981583), wk =   0.0555556
        k(   32) = (  -0.0000000   0.0000000  -0.5944749), wk =   0.0092593

                       cryst. coord.
        k(    1) = (   0.0000000   0.0000000   0.0000000), wk =   0.0092593
        k(    2) = (  -0.0000000  -0.0000000   0.1666667), wk =   0.0555556
        k(    3) = (  -0.0000000  -0.0000000   0.3333333), wk =   0.0555556
        k(    4) = (  -0.0000000  -0.0000000  -0.5000000), wk =   0.0277778
        k(    5) = (   0.0000000   0.1666667   0.1666667), wk =   0.0555556
        k(    6) = (  -0.0000000   0.1666667   0.3333333), wk =   0.1111111
        k(    7) = (   0.0000000   0.1666667  -0.5000000), wk =   0.1111111
        k(    8) = (  -0.0000000   0.1666667  -0.3333333), wk =   0.1111111
        k(    9) = (  -0.0000000   0.1666667  -0.1666667), wk =   0.0555556
        k(   10) = (   0.0000000   0.3333333   0.3333333), wk =   0.0555556
        k(   11) = (  -0.0000000   0.3333333  -0.5000000), wk =   0.1111111
        k(   12) = (  -0.0000000   0.3333333  -0.3333333), wk =   0.0555556
        k(   13) = (  -0.0000000  -0.5000000  -0.5000000), wk =   0.0277778
        k(   14) = (   0.1666667   0.1666667   0.1666667), wk =   0.0185185
        k(   15) = (   0.1666667   0.1666667   0.3333333), wk =   0.0555556
        k(   16) = (   0.1666667   0.1666667  -0.5000000), wk =   0.0555556
        k(   17) = (   0.1666667   0.1666667  -0.3333333), wk =   0.0555556
        k(   18) = (   0.1666667   0.1666667  -0.1666667), wk =   0.0555556
        k(   19) = (   0.1666667   0.3333333   0.3333333), wk =   0.0555556
        k(   20) = (   0.1666667   0.3333333  -0.5000000), wk =   0.1111111
        k(   21) = (   0.1666667   0.3333333  -0.3333333), wk =   0.1111111
        k(   22) = (   0.1666667   0.3333333  -0.1666667), wk =   0.1111111
        k(   23) = (   0.1666667  -0.5000000  -0.5000000), wk =   0.0555556
        k(   24) = (   0.1666667  -0.5000000  -0.3333333), wk =   0.1111111
        k(   25) = (   0.1666667  -0.5000000  -0.1666667), wk =   0.0555556
        k(   26) = (   0.1666667  -0.3333333  -0.3333333), wk =   0.0555556
        k(   27) = (   0.3333333   0.3333333   0.3333333), wk =   0.0185185
        k(   28) = (   0.3333333   0.3333333  -0.5000000), wk =   0.0555556
        k(   29) = (   0.3333333   0.3333333  -0.3333333), wk =   0.0555556
        k(   30) = (   0.3333333  -0.5000000  -0.5000000), wk =   0.0555556
        k(   31) = (   0.3333333  -0.5000000  -0.3333333), wk =   0.0555556
        k(   32) = (  -0.5000000  -0.5000000  -0.5000000), wk =   0.0092593

     Dense  grid:    92887 G-vectors     FFT dimensions: (  72,  72,  72)

     Smooth grid:    43105 G-vectors     FFT dimensions: (  54,  54,  54)

     Dynamical RAM for                 wfc:       2.80 MB

     Dynamical RAM for     wfc (w. buffer):      92.38 MB

     Dynamical RAM for           str. fact:       4.25 MB

     Dynamical RAM for           local pot:       0.00 MB

     Dynamical RAM for          nlocal pot:       8.40 MB

     Dynamical RAM for                qrad:       4.82 MB

     Dynamical RAM for          rho,v,vnew:      12.79 MB

     Dynamical RAM for               rhoin:       4.26 MB

     Dynamical RAM for            rho*nmix:      22.68 MB

     Dynamical RAM for           G-vectors:       5.64 MB

     Dynamical RAM for          h,s,v(r/c):       0.21 MB

     Dynamical RAM for          <psi|beta>:       0.05 MB

     Dynamical RAM for                 psi:       5.60 MB

     Dynamical RAM for                hpsi:       5.60 MB

     Dynamical RAM for                spsi:       5.60 MB

     Dynamical RAM for      wfcinit/wfcrot:       5.63 MB

     Dynamical RAM for           addusdens:     272.13 MB

     Dynamical RAM for          addusforce:     287.04 MB

     Dynamical RAM for         addusstress:     284.89 MB

     Estimated static dynamical RAM per process >     152.46 MB

     Estimated max dynamical RAM per process >     462.17 MB

     Check: negative core charge=   -0.000005

     Initial potential from superposition of free atoms

     starting charge      67.0945, renormalised to      68.0000
     Starting wfcs are   54 randomized atomic wfcs
     Checking if some PAW data can be deallocated... 

     total cpu time spent up to now is        1.1 secs

     per-process dynamical memory:   552.0 Mb

     Self-consistent Calculation
[tb_dev] Currently allocated     1.86E+00 Mbytes, locked:    0 /   3
[tb_pin] Currently allocated     0.00E+00 Mbytes, locked:    0 /   0

     iteration #  1     ecut=    60.00 Ry     beta= 0.70
     Davidson diagonalization with overlap

---- Real-time Memory Report at c_bands before calling an iterative solver
           979 MiB given to the printing process from OS
           539 MiB allocation reported by mallinfo(arena+hblkhd)
       1898945 MiB available memory on the node where the printing process lives
     GPU memory used/free/total (MiB): 2255 / 180386 / 182642
------------------
     ethr =  1.00E-02,  avg # of iterations =  1.4

     total cpu time spent up to now is        1.6 secs

     total energy              =    -934.55445049 Ry
     estimated scf accuracy    <       4.26769974 Ry
[tb_dev] Currently allocated     0.00E+00 Mbytes, locked:    0 /   0
[tb_pin] Currently allocated     0.00E+00 Mbytes, locked:    0 /   0

     iteration #  2     ecut=    60.00 Ry     beta= 0.70
     Davidson diagonalization with overlap

---- Real-time Memory Report at c_bands before calling an iterative solver
          1028 MiB given to the printing process from OS
           612 MiB allocation reported by mallinfo(arena+hblkhd)
       1898839 MiB available memory on the node where the printing process lives
     GPU memory used/free/total (MiB): 2255 / 180386 / 182642
------------------
     ethr =  6.28E-03,  avg # of iterations =  8.1

     total cpu time spent up to now is        2.6 secs

     total energy              =    -934.34277660 Ry
     estimated scf accuracy    <      12.94475031 Ry
[tb_dev] Currently allocated     0.00E+00 Mbytes, locked:    0 /   0
[tb_pin] Currently allocated     0.00E+00 Mbytes, locked:    0 /   0

     iteration #  3     ecut=    60.00 Ry     beta= 0.70
     Davidson diagonalization with overlap

---- Real-time Memory Report at c_bands before calling an iterative solver
          1035 MiB given to the printing process from OS
           616 MiB allocation reported by mallinfo(arena+hblkhd)
       1898842 MiB available memory on the node where the printing process lives
     GPU memory used/free/total (MiB): 2257 / 180384 / 182642
------------------
     ethr =  6.28E-03,  avg # of iterations =  5.2

     total cpu time spent up to now is        3.3 secs

     total energy              =    -936.66362129 Ry
     estimated scf accuracy    <       0.06463145 Ry
[tb_dev] Currently allocated     0.00E+00 Mbytes, locked:    0 /   0
[tb_pin] Currently allocated     0.00E+00 Mbytes, locked:    0 /   0

     iteration #  4     ecut=    60.00 Ry     beta= 0.70
     Davidson diagonalization with overlap

---- Real-time Memory Report at c_bands before calling an iterative solver
          1037 MiB given to the printing process from OS
           618 MiB allocation reported by mallinfo(arena+hblkhd)
       1898839 MiB available memory on the node where the printing process lives
     GPU memory used/free/total (MiB): 2257 / 180384 / 182642
------------------
     ethr =  9.50E-05,  avg # of iterations =  9.1

     total cpu time spent up to now is        4.4 secs

     total energy              =    -936.71610113 Ry
     estimated scf accuracy    <       0.29771267 Ry
[tb_dev] Currently allocated     0.00E+00 Mbytes, locked:    0 /   0
[tb_pin] Currently allocated     0.00E+00 Mbytes, locked:    0 /   0

     iteration #  5     ecut=    60.00 Ry     beta= 0.70
     Davidson diagonalization with overlap

---- Real-time Memory Report at c_bands before calling an iterative solver
          1040 MiB given to the printing process from OS
           620 MiB allocation reported by mallinfo(arena+hblkhd)
       1898857 MiB available memory on the node where the printing process lives
     GPU memory used/free/total (MiB): 2257 / 180384 / 182642
------------------
     ethr =  9.50E-05,  avg # of iterations =  7.4

     total cpu time spent up to now is        5.3 secs

     total energy              =    -936.82083634 Ry
     estimated scf accuracy    <       0.17169118 Ry
[tb_dev] Currently allocated     0.00E+00 Mbytes, locked:    0 /   0
[tb_pin] Currently allocated     0.00E+00 Mbytes, locked:    0 /   0

     iteration #  6     ecut=    60.00 Ry     beta= 0.70
     Davidson diagonalization with overlap

---- Real-time Memory Report at c_bands before calling an iterative solver
          1042 MiB given to the printing process from OS
           621 MiB allocation reported by mallinfo(arena+hblkhd)
       1898900 MiB available memory on the node where the printing process lives
     GPU memory used/free/total (MiB): 2257 / 180384 / 182642
------------------
     ethr =  9.50E-05,  avg # of iterations =  3.9

     total cpu time spent up to now is        6.0 secs

     total energy              =    -936.81446957 Ry
     estimated scf accuracy    <       0.03741313 Ry
[tb_dev] Currently allocated     0.00E+00 Mbytes, locked:    0 /   0
[tb_pin] Currently allocated     0.00E+00 Mbytes, locked:    0 /   0

     iteration #  7     ecut=    60.00 Ry     beta= 0.70
     Davidson diagonalization with overlap

---- Real-time Memory Report at c_bands before calling an iterative solver
          1044 MiB given to the printing process from OS
           623 MiB allocation reported by mallinfo(arena+hblkhd)
       1898902 MiB available memory on the node where the printing process lives
     GPU memory used/free/total (MiB): 2257 / 180384 / 182642
------------------
     ethr =  5.50E-05,  avg # of iterations =  5.6

     total cpu time spent up to now is        6.7 secs

     total energy              =    -936.83394078 Ry
     estimated scf accuracy    <       0.01163379 Ry
[tb_dev] Currently allocated     0.00E+00 Mbytes, locked:    0 /   0
[tb_pin] Currently allocated     0.00E+00 Mbytes, locked:    0 /   0

     iteration #  8     ecut=    60.00 Ry     beta= 0.70
     Davidson diagonalization with overlap

---- Real-time Memory Report at c_bands before calling an iterative solver
          1045 MiB given to the printing process from OS
           624 MiB allocation reported by mallinfo(arena+hblkhd)
       1898903 MiB available memory on the node where the printing process lives
     GPU memory used/free/total (MiB): 2257 / 180384 / 182642
------------------
     ethr =  1.71E-05,  avg # of iterations =  1.3

     total cpu time spent up to now is        7.1 secs

     total energy              =    -936.83211292 Ry
     estimated scf accuracy    <       0.00633256 Ry
[tb_dev] Currently allocated     0.00E+00 Mbytes, locked:    0 /   0
[tb_pin] Currently allocated     0.00E+00 Mbytes, locked:    0 /   0

     iteration #  9     ecut=    60.00 Ry     beta= 0.70
     Davidson diagonalization with overlap

---- Real-time Memory Report at c_bands before calling an iterative solver
          1048 MiB given to the printing process from OS
           625 MiB allocation reported by mallinfo(arena+hblkhd)
       1898839 MiB available memory on the node where the printing process lives
     GPU memory used/free/total (MiB): 2257 / 180384 / 182642
------------------
     ethr =  9.31E-06,  avg # of iterations =  3.1

     total cpu time spent up to now is        7.7 secs

     total energy              =    -936.83267246 Ry
     estimated scf accuracy    <       0.00074443 Ry
[tb_dev] Currently allocated     0.00E+00 Mbytes, locked:    0 /   0
[tb_pin] Currently allocated     0.00E+00 Mbytes, locked:    0 /   0

     iteration # 10     ecut=    60.00 Ry     beta= 0.70
     Davidson diagonalization with overlap

---- Real-time Memory Report at c_bands before calling an iterative solver
          1049 MiB given to the printing process from OS
           627 MiB allocation reported by mallinfo(arena+hblkhd)
       1898814 MiB available memory on the node where the printing process lives
     GPU memory used/free/total (MiB): 2257 / 180384 / 182642
------------------
     ethr =  1.09E-06,  avg # of iterations =  5.9

     total cpu time spent up to now is        8.4 secs

     total energy              =    -936.83323677 Ry
     estimated scf accuracy    <       0.00047012 Ry
[tb_dev] Currently allocated     0.00E+00 Mbytes, locked:    0 /   0
[tb_pin] Currently allocated     0.00E+00 Mbytes, locked:    0 /   0

     iteration # 11     ecut=    60.00 Ry     beta= 0.70
     Davidson diagonalization with overlap

---- Real-time Memory Report at c_bands before calling an iterative solver
          1050 MiB given to the printing process from OS
           618 MiB allocation reported by mallinfo(arena+hblkhd)
       1898819 MiB available memory on the node where the printing process lives
     GPU memory used/free/total (MiB): 2257 / 180384 / 182642
------------------
     ethr =  6.91E-07,  avg # of iterations =  1.8

     total cpu time spent up to now is        8.9 secs

     total energy              =    -936.83320058 Ry
     estimated scf accuracy    <       0.00014596 Ry
[tb_dev] Currently allocated     0.00E+00 Mbytes, locked:    0 /   0
[tb_pin] Currently allocated     0.00E+00 Mbytes, locked:    0 /   0

     iteration # 12     ecut=    60.00 Ry     beta= 0.70
     Davidson diagonalization with overlap

---- Real-time Memory Report at c_bands before calling an iterative solver
          1051 MiB given to the printing process from OS
           627 MiB allocation reported by mallinfo(arena+hblkhd)
       1898788 MiB available memory on the node where the printing process lives
     GPU memory used/free/total (MiB): 2257 / 180384 / 182642
------------------
     ethr =  2.15E-07,  avg # of iterations =  5.0

     total cpu time spent up to now is        9.6 secs

     total energy              =    -936.83326576 Ry
     estimated scf accuracy    <       0.00000847 Ry
[tb_dev] Currently allocated     0.00E+00 Mbytes, locked:    0 /   0
[tb_pin] Currently allocated     0.00E+00 Mbytes, locked:    0 /   0

     iteration # 13     ecut=    60.00 Ry     beta= 0.70
     Davidson diagonalization with overlap

---- Real-time Memory Report at c_bands before calling an iterative solver
          1051 MiB given to the printing process from OS
           627 MiB allocation reported by mallinfo(arena+hblkhd)
       1898802 MiB available memory on the node where the printing process lives
     GPU memory used/free/total (MiB): 2257 / 180384 / 182642
------------------
     ethr =  1.25E-08,  avg # of iterations =  5.2

     total cpu time spent up to now is       10.3 secs

     total energy              =    -936.83326302 Ry
     estimated scf accuracy    <       0.00002489 Ry
[tb_dev] Currently allocated     0.00E+00 Mbytes, locked:    0 /   0
[tb_pin] Currently allocated     0.00E+00 Mbytes, locked:    0 /   0

     iteration # 14     ecut=    60.00 Ry     beta= 0.70
     Davidson diagonalization with overlap

---- Real-time Memory Report at c_bands before calling an iterative solver
          1051 MiB given to the printing process from OS
           627 MiB allocation reported by mallinfo(arena+hblkhd)
       1898792 MiB available memory on the node where the printing process lives
     GPU memory used/free/total (MiB): 2257 / 180384 / 182642
------------------
     ethr =  1.25E-08,  avg # of iterations =  2.0

     total cpu time spent up to now is       10.7 secs

     total energy              =    -936.83326244 Ry
     estimated scf accuracy    <       0.00001079 Ry
[tb_dev] Currently allocated     0.00E+00 Mbytes, locked:    0 /   0
[tb_pin] Currently allocated     0.00E+00 Mbytes, locked:    0 /   0

     iteration # 15     ecut=    60.00 Ry     beta= 0.70
     Davidson diagonalization with overlap

---- Real-time Memory Report at c_bands before calling an iterative solver
          1051 MiB given to the printing process from OS
           627 MiB allocation reported by mallinfo(arena+hblkhd)
       1898789 MiB available memory on the node where the printing process lives
     GPU memory used/free/total (MiB): 2257 / 180384 / 182642
------------------
     ethr =  1.25E-08,  avg # of iterations =  1.2

     total cpu time spent up to now is       11.1 secs

     total energy              =    -936.83326259 Ry
     estimated scf accuracy    <       0.00000685 Ry
[tb_dev] Currently allocated     0.00E+00 Mbytes, locked:    0 /   0
[tb_pin] Currently allocated     0.00E+00 Mbytes, locked:    0 /   0

     iteration # 16     ecut=    60.00 Ry     beta= 0.70
     Davidson diagonalization with overlap

---- Real-time Memory Report at c_bands before calling an iterative solver
          1051 MiB given to the printing process from OS
           627 MiB allocation reported by mallinfo(arena+hblkhd)
       1898798 MiB available memory on the node where the printing process lives
     GPU memory used/free/total (MiB): 2257 / 180384 / 182642
------------------
     ethr =  1.01E-08,  avg # of iterations =  1.0

     total cpu time spent up to now is       11.5 secs

     total energy              =    -936.83326269 Ry
     estimated scf accuracy    <       0.00000616 Ry
[tb_dev] Currently allocated     0.00E+00 Mbytes, locked:    0 /   0
[tb_pin] Currently allocated     0.00E+00 Mbytes, locked:    0 /   0

     iteration # 17     ecut=    60.00 Ry     beta= 0.70
     Davidson diagonalization with overlap

---- Real-time Memory Report at c_bands before calling an iterative solver
          1051 MiB given to the printing process from OS
           627 MiB allocation reported by mallinfo(arena+hblkhd)
       1898803 MiB available memory on the node where the printing process lives
     GPU memory used/free/total (MiB): 2257 / 180384 / 182642
------------------
     ethr =  9.07E-09,  avg # of iterations =  1.0

     total cpu time spent up to now is       11.9 secs

     total energy              =    -936.83326236 Ry
     estimated scf accuracy    <       0.00000512 Ry
[tb_dev] Currently allocated     0.00E+00 Mbytes, locked:    0 /   0
[tb_pin] Currently allocated     0.00E+00 Mbytes, locked:    0 /   0

     iteration # 18     ecut=    60.00 Ry     beta= 0.70
     Davidson diagonalization with overlap

---- Real-time Memory Report at c_bands before calling an iterative solver
          1051 MiB given to the printing process from OS
           627 MiB allocation reported by mallinfo(arena+hblkhd)
       1898803 MiB available memory on the node where the printing process lives
     GPU memory used/free/total (MiB): 2257 / 180384 / 182642
------------------
     ethr =  7.53E-09,  avg # of iterations =  1.2

     total cpu time spent up to now is       12.3 secs

     total energy              =    -936.83326146 Ry
     estimated scf accuracy    <       0.00000394 Ry
[tb_dev] Currently allocated     0.00E+00 Mbytes, locked:    0 /   0
[tb_pin] Currently allocated     0.00E+00 Mbytes, locked:    0 /   0

     iteration # 19     ecut=    60.00 Ry     beta= 0.70
     Davidson diagonalization with overlap

---- Real-time Memory Report at c_bands before calling an iterative solver
          1051 MiB given to the printing process from OS
           627 MiB allocation reported by mallinfo(arena+hblkhd)
       1898810 MiB available memory on the node where the printing process lives
     GPU memory used/free/total (MiB): 2257 / 180384 / 182642
------------------
     ethr =  5.79E-09,  avg # of iterations =  4.9

     total cpu time spent up to now is       13.0 secs

     total energy              =    -936.83326244 Ry
     estimated scf accuracy    <       0.00000002 Ry
[tb_dev] Currently allocated     0.00E+00 Mbytes, locked:    0 /   0
[tb_pin] Currently allocated     0.00E+00 Mbytes, locked:    0 /   0

     iteration # 20     ecut=    60.00 Ry     beta= 0.70
     Davidson diagonalization with overlap

---- Real-time Memory Report at c_bands before calling an iterative solver
          1051 MiB given to the printing process from OS
           627 MiB allocation reported by mallinfo(arena+hblkhd)
       1898798 MiB available memory on the node where the printing process lives
     GPU memory used/free/total (MiB): 2257 / 180384 / 182642
------------------
     ethr =  3.66E-11,  avg # of iterations =  8.4

     total cpu time spent up to now is       14.0 secs

     total energy              =    -936.83326251 Ry
     estimated scf accuracy    <       0.00000005 Ry
[tb_dev] Currently allocated     0.00E+00 Mbytes, locked:    0 /   0
[tb_pin] Currently allocated     0.00E+00 Mbytes, locked:    0 /   0

     iteration # 21     ecut=    60.00 Ry     beta= 0.70
     Davidson diagonalization with overlap

---- Real-time Memory Report at c_bands before calling an iterative solver
          1051 MiB given to the printing process from OS
           627 MiB allocation reported by mallinfo(arena+hblkhd)
       1898796 MiB available memory on the node where the printing process lives
     GPU memory used/free/total (MiB): 2257 / 180384 / 182642
------------------
     ethr =  3.66E-11,  avg # of iterations =  2.9

     total cpu time spent up to now is       14.5 secs

     total energy              =    -936.83326252 Ry
     estimated scf accuracy    <          9.2E-09 Ry
[tb_dev] Currently allocated     0.00E+00 Mbytes, locked:    0 /   0
[tb_pin] Currently allocated     0.00E+00 Mbytes, locked:    0 /   0

     iteration # 22     ecut=    60.00 Ry     beta= 0.70
     Davidson diagonalization with overlap

---- Real-time Memory Report at c_bands before calling an iterative solver
          1051 MiB given to the printing process from OS
           627 MiB allocation reported by mallinfo(arena+hblkhd)
       1898798 MiB available memory on the node where the printing process lives
     GPU memory used/free/total (MiB): 2257 / 180384 / 182642
------------------
     ethr =  1.35E-11,  avg # of iterations =  4.9

     total cpu time spent up to now is       15.2 secs

     total energy              =    -936.83326252 Ry
     estimated scf accuracy    <          7.0E-10 Ry
[tb_dev] Currently allocated     0.00E+00 Mbytes, locked:    0 /   0
[tb_pin] Currently allocated     0.00E+00 Mbytes, locked:    0 /   0

     iteration # 23     ecut=    60.00 Ry     beta= 0.70
     Davidson diagonalization with overlap

---- Real-time Memory Report at c_bands before calling an iterative solver
          1051 MiB given to the printing process from OS
           627 MiB allocation reported by mallinfo(arena+hblkhd)
       1898793 MiB available memory on the node where the printing process lives
     GPU memory used/free/total (MiB): 2257 / 180384 / 182642
------------------
     ethr =  1.03E-12,  avg # of iterations =  3.6

     total cpu time spent up to now is       15.8 secs

     total energy              =    -936.83326252 Ry
     estimated scf accuracy    <          7.1E-10 Ry
[tb_dev] Currently allocated     0.00E+00 Mbytes, locked:    0 /   0
[tb_pin] Currently allocated     0.00E+00 Mbytes, locked:    0 /   0

     iteration # 24     ecut=    60.00 Ry     beta= 0.70
     Davidson diagonalization with overlap

---- Real-time Memory Report at c_bands before calling an iterative solver
          1051 MiB given to the printing process from OS
           627 MiB allocation reported by mallinfo(arena+hblkhd)
       1898778 MiB available memory on the node where the printing process lives
     GPU memory used/free/total (MiB): 2257 / 180384 / 182642
------------------
     ethr =  1.03E-12,  avg # of iterations =  1.3

     total cpu time spent up to now is       16.2 secs

     total energy              =    -936.83326252 Ry
     estimated scf accuracy    <          5.7E-10 Ry
[tb_dev] Currently allocated     0.00E+00 Mbytes, locked:    0 /   0
[tb_pin] Currently allocated     0.00E+00 Mbytes, locked:    0 /   0

     iteration # 25     ecut=    60.00 Ry     beta= 0.70
     Davidson diagonalization with overlap

---- Real-time Memory Report at c_bands before calling an iterative solver
          1051 MiB given to the printing process from OS
           627 MiB allocation reported by mallinfo(arena+hblkhd)
       1898792 MiB available memory on the node where the printing process lives
     GPU memory used/free/total (MiB): 2257 / 180384 / 182642
------------------
     ethr =  8.35E-13,  avg # of iterations =  2.0

     total cpu time spent up to now is       16.7 secs

     total energy              =    -936.83326252 Ry
     estimated scf accuracy    <          7.4E-10 Ry
[tb_dev] Currently allocated     0.00E+00 Mbytes, locked:    0 /   0
[tb_pin] Currently allocated     0.00E+00 Mbytes, locked:    0 /   0

     iteration # 26     ecut=    60.00 Ry     beta= 0.70
     Davidson diagonalization with overlap

---- Real-time Memory Report at c_bands before calling an iterative solver
          1051 MiB given to the printing process from OS
           627 MiB allocation reported by mallinfo(arena+hblkhd)
       1898794 MiB available memory on the node where the printing process lives
     GPU memory used/free/total (MiB): 2257 / 180384 / 182642
------------------
     ethr =  8.35E-13,  avg # of iterations =  5.8

     total cpu time spent up to now is       17.4 secs

     total energy              =    -936.83326252 Ry
     estimated scf accuracy    <          5.6E-09 Ry
[tb_dev] Currently allocated     0.00E+00 Mbytes, locked:    0 /   0
[tb_pin] Currently allocated     0.00E+00 Mbytes, locked:    0 /   0

     iteration # 27     ecut=    60.00 Ry     beta= 0.70
     Davidson diagonalization with overlap

---- Real-time Memory Report at c_bands before calling an iterative solver
          1051 MiB given to the printing process from OS
           627 MiB allocation reported by mallinfo(arena+hblkhd)
       1898784 MiB available memory on the node where the printing process lives
     GPU memory used/free/total (MiB): 2257 / 180384 / 182642
------------------
     ethr =  8.35E-13,  avg # of iterations =  1.0

     total cpu time spent up to now is       17.8 secs

     total energy              =    -936.83326252 Ry
     estimated scf accuracy    <          4.9E-09 Ry
[tb_dev] Currently allocated     0.00E+00 Mbytes, locked:    0 /   0
[tb_pin] Currently allocated     0.00E+00 Mbytes, locked:    0 /   0

     iteration # 28     ecut=    60.00 Ry     beta= 0.70
     Davidson diagonalization with overlap

---- Real-time Memory Report at c_bands before calling an iterative solver
          1051 MiB given to the printing process from OS
           627 MiB allocation reported by mallinfo(arena+hblkhd)
       1898782 MiB available memory on the node where the printing process lives
     GPU memory used/free/total (MiB): 2257 / 180384 / 182642
------------------
     ethr =  8.35E-13,  avg # of iterations =  8.0

     total cpu time spent up to now is       18.8 secs

     total energy              =    -936.83326252 Ry
     estimated scf accuracy    <          5.6E-09 Ry
[tb_dev] Currently allocated     0.00E+00 Mbytes, locked:    0 /   0
[tb_pin] Currently allocated     0.00E+00 Mbytes, locked:    0 /   0

     iteration # 29     ecut=    60.00 Ry     beta= 0.70
     Davidson diagonalization with overlap

---- Real-time Memory Report at c_bands before calling an iterative solver
          1051 MiB given to the printing process from OS
           627 MiB allocation reported by mallinfo(arena+hblkhd)
       1898787 MiB available memory on the node where the printing process lives
     GPU memory used/free/total (MiB): 2257 / 180384 / 182642
------------------
     ethr =  8.35E-13,  avg # of iterations =  5.9

     total cpu time spent up to now is       19.6 secs

     total energy              =    -936.83326252 Ry
     estimated scf accuracy    <          4.8E-10 Ry
[tb_dev] Currently allocated     0.00E+00 Mbytes, locked:    0 /   0
[tb_pin] Currently allocated     0.00E+00 Mbytes, locked:    0 /   0

     iteration # 30     ecut=    60.00 Ry     beta= 0.70
     Davidson diagonalization with overlap

---- Real-time Memory Report at c_bands before calling an iterative solver
          1051 MiB given to the printing process from OS
           627 MiB allocation reported by mallinfo(arena+hblkhd)
       1898836 MiB available memory on the node where the printing process lives
     GPU memory used/free/total (MiB): 2257 / 180384 / 182642
------------------
     ethr =  7.01E-13,  avg # of iterations =  4.8

     total cpu time spent up to now is       20.3 secs

     total energy              =    -936.83326252 Ry
     estimated scf accuracy    <          5.4E-12 Ry
[tb_dev] Currently allocated     0.00E+00 Mbytes, locked:    0 /   0
[tb_pin] Currently allocated     0.00E+00 Mbytes, locked:    0 /   0

     iteration # 31     ecut=    60.00 Ry     beta= 0.70
     Davidson diagonalization with overlap

---- Real-time Memory Report at c_bands before calling an iterative solver
          1051 MiB given to the printing process from OS
           627 MiB allocation reported by mallinfo(arena+hblkhd)
       1898845 MiB available memory on the node where the printing process lives
     GPU memory used/free/total (MiB): 2257 / 180384 / 182642
------------------
     ethr =  1.00E-13,  avg # of iterations =  5.1

     total cpu time spent up to now is       20.9 secs

     total energy              =    -936.83326252 Ry
     estimated scf accuracy    <          4.6E-11 Ry
[tb_dev] Currently allocated     0.00E+00 Mbytes, locked:    0 /   0
[tb_pin] Currently allocated     0.00E+00 Mbytes, locked:    0 /   0

     iteration # 32     ecut=    60.00 Ry     beta= 0.70
     Davidson diagonalization with overlap

---- Real-time Memory Report at c_bands before calling an iterative solver
          1051 MiB given to the printing process from OS
           627 MiB allocation reported by mallinfo(arena+hblkhd)
       1898846 MiB available memory on the node where the printing process lives
     GPU memory used/free/total (MiB): 2257 / 180384 / 182642
------------------
     ethr =  1.00E-13,  avg # of iterations =  1.0

     total cpu time spent up to now is       21.3 secs

     total energy              =    -936.83326252 Ry
     estimated scf accuracy    <          3.9E-11 Ry
[tb_dev] Currently allocated     0.00E+00 Mbytes, locked:    0 /   0
[tb_pin] Currently allocated     0.00E+00 Mbytes, locked:    0 /   0

     iteration # 33     ecut=    60.00 Ry     beta= 0.70
     Davidson diagonalization with overlap

---- Real-time Memory Report at c_bands before calling an iterative solver
          1051 MiB given to the printing process from OS
           627 MiB allocation reported by mallinfo(arena+hblkhd)
       1898792 MiB available memory on the node where the printing process lives
     GPU memory used/free/total (MiB): 2257 / 180384 / 182642
------------------
     ethr =  1.00E-13,  avg # of iterations =  1.9

     total cpu time spent up to now is       21.8 secs

     total energy              =    -936.83326252 Ry
     estimated scf accuracy    <          5.3E-12 Ry
[tb_dev] Currently allocated     0.00E+00 Mbytes, locked:    0 /   0
[tb_pin] Currently allocated     0.00E+00 Mbytes, locked:    0 /   0

     iteration # 34     ecut=    60.00 Ry     beta= 0.70
     Davidson diagonalization with overlap

---- Real-time Memory Report at c_bands before calling an iterative solver
          1051 MiB given to the printing process from OS
           627 MiB allocation reported by mallinfo(arena+hblkhd)
       1898792 MiB available memory on the node where the printing process lives
     GPU memory used/free/total (MiB): 2257 / 180384 / 182642
------------------
     ethr =  1.00E-13,  avg # of iterations =  1.3

     total cpu time spent up to now is       22.2 secs

     End of self-consistent calculation

          k = 0.0000 0.0000 0.0000 (  5391 PWs)   bands (ev):

   -46.1575 -46.1379 -34.0577 -34.0540 -22.5988 -22.5988 -22.5176 -22.4051
   -22.4051 -22.2879  -9.3081  -8.6252  -8.6252  -7.5296  -7.3016  -7.3016
     3.0446   3.0446   3.2235   3.3043   3.3043   4.3693   5.5950   5.6384
     5.6384   6.4156   6.8804   6.8804   7.0440   7.0713   7.0713   7.2573
     7.7170   7.7170

     occupation numbers 
     1.0000   1.0000   1.0000   1.0000   1.0000   1.0000   1.0000   1.0000
     1.0000   1.0000   1.0000   1.0000   1.0000   1.0000   1.0000   1.0000
     1.0000   1.0000   1.0000   1.0000   1.0000   1.0000   1.0000   1.0000
     1.0000   1.0000   1.0000   1.0000   1.0000   1.0000   1.0000   1.0000
     1.0000   1.0000

          k = 0.0000-0.2054 0.0661 (  5391 PWs)   bands (ev):

   -46.1562 -46.1392 -34.0575 -34.0543 -22.5883 -22.5866 -22.5019 -22.4203
   -22.4190 -22.3033  -9.1867  -8.5536  -8.5509  -7.6193  -7.4250  -7.4065
     2.9826   3.0863   3.3697   3.5978   3.6082   4.4157   5.2641   5.3447
     5.4389   6.4072   6.6224   6.8882   6.8926   7.1986   7.2657   7.3345
     7.5662   7.6398

     occupation numbers 
     1.0000   1.0000   1.0000   1.0000   1.0000   1.0000   1.0000   1.0000
     1.0000   1.0000   1.0000   1.0000   1.0000   1.0000   1.0000   1.0000
     1.0000   1.0000   1.0000   1.0000   1.0000   1.0000   1.0000   1.0000
     1.0000   1.0000   1.0000   1.0000   1.0000   1.0000   1.0000   1.0000
     1.0000   1.0000

          k = 0.0000-0.4108 0.1321 (  5408 PWs)   bands (ev):

   -46.1525 -46.1427 -34.0569 -34.0550 -22.5576 -22.5528 -22.4601 -22.4600
   -22.4557 -22.3452  -8.8522  -8.3598  -8.3453  -7.8904  -7.7218  -7.6738
     3.1552   3.3235   3.6754   4.1671   4.1979   4.5081   4.5285   4.9020
     5.1398   5.8638   6.2195   6.5368   7.1371   7.2081   7.2383   7.3905
     7.5096   7.6528

     occupation numbers 
     1.0000   1.0000   1.0000   1.0000   1.0000   1.0000   1.0000   1.0000
     1.0000   1.0000   1.0000   1.0000   1.0000   1.0000   1.0000   1.0000
     1.0000   1.0000   1.0000   1.0000   1.0000   1.0000   1.0000   1.0000
     1.0000   1.0000   1.0000   1.0000   1.0000   1.0000   1.0000   1.0000
     1.0000   1.0000

          k =-0.0000 0.6162-0.1982 (  5374 PWs)   bands (ev):

   -46.1476 -46.1476 -34.0560 -34.0560 -22.5112 -22.5112 -22.5052 -22.5052
   -22.4024 -22.4024  -8.4044  -8.4044  -8.0708  -8.0708  -7.9716  -7.9716
     3.5582   3.5582   3.8290   3.8290   4.3745   4.3745   4.8735   4.8735
     5.3480   5.3480   5.8411   5.8411   7.2750   7.2750   7.4318   7.4318
     7.5112   7.5112

     occupation numbers 
     1.0000   1.0000   1.0000   1.0000   1.0000   1.0000   1.0000   1.0000
     1.0000   1.0000   1.0000   1.0000   1.0000   1.0000   1.0000   1.0000
     1.0000   1.0000   1.0000   1.0000   1.0000   1.0000   1.0000   1.0000
     1.0000   1.0000   1.0000   1.0000   1.0000   1.0000   1.0000   1.0000
     1.0000   1.0000

          k =-0.1779-0.1027 0.1321 (  5392 PWs)   bands (ev):

   -46.1558 -46.1395 -34.0574 -34.0543 -22.6023 -22.5765 -22.4883 -22.4489
   -22.4026 -22.3012  -9.1799  -8.6032  -8.4372  -7.7493  -7.4330  -7.3438
     3.0476   3.0912   3.2584   3.5966   3.7360   4.5729   4.8641   5.5308
     5.6073   6.4061   6.5555   6.7572   6.9254   7.0340   7.1941   7.3168
     7.6020   7.6549

     occupation numbers 
     1.0000   1.0000   1.0000   1.0000   1.0000   1.0000   1.0000   1.0000
     1.0000   1.0000   1.0000   1.0000   1.0000   1.0000   1.0000   1.0000
     1.0000   1.0000   1.0000   1.0000   1.0000   1.0000   1.0000   1.0000
     1.0000   1.0000   1.0000   1.0000   1.0000   1.0000   1.0000   1.0000
     1.0000   1.0000

          k =-0.1779-0.3081 0.1982 (  5394 PWs)   bands (ev):

   -46.1533 -46.1420 -34.0570 -34.0549 -22.5938 -22.5568 -22.4992 -22.4415
   -22.4155 -22.3208  -8.9870  -8.5128  -8.2065  -8.0412  -7.5609  -7.4907
     2.9754   3.2676   3.6604   3.8658   4.0522   4.3155   4.8788   5.0928
     5.5075   6.0508   6.4431   6.7180   6.8476   6.9898   7.1179   7.3580
     7.4904   7.6478

     occupation numbers 
     1.0000   1.0000   1.0000   1.0000   1.0000   1.0000   1.0000   1.0000
     1.0000   1.0000   1.0000   1.0000   1.0000   1.0000   1.0000   1.0000
     1.0000   1.0000   1.0000   1.0000   1.0000   1.0000   1.0000   1.0000
     1.0000   1.0000   1.0000   1.0000   1.0000   1.0000   1.0000   1.0000
     1.0000   1.0000

          k =-0.1779 0.7189-0.1321 (  5393 PWs)   bands (ev):

   -46.1492 -46.1460 -34.0563 -34.0557 -22.5627 -22.5492 -22.5184 -22.4539
   -22.3879 -22.3629  -8.6408  -8.4383  -8.2997  -7.8573  -7.8425  -7.7687
     3.1726   3.4335   3.6801   4.1115   4.3379   4.4561   4.6824   4.9442
     5.2142   5.6897   6.1496   6.4694   6.9051   7.1491   7.1760   7.3019
     7.4994   7.5997

     occupation numbers 
     1.0000   1.0000   1.0000   1.0000   1.0000   1.0000   1.0000   1.0000
     1.0000   1.0000   1.0000   1.0000   1.0000   1.0000   1.0000   1.0000
     1.0000   1.0000   1.0000   1.0000   1.0000   1.0000   1.0000   1.0000
     1.0000   1.0000   1.0000   1.0000   1.0000   1.0000   1.0000   1.0000
     1.0000   1.0000

          k =-0.1779 0.5135-0.0661 (  5403 PWs)   bands (ev):

   -46.1504 -46.1448 -34.0565 -34.0554 -22.5835 -22.5145 -22.5047 -22.4693
   -22.4182 -22.3443  -8.7653  -8.2766  -8.1810  -8.0692  -7.9804  -7.5694
     3.1228   3.5484   3.7082   3.8515   4.0829   4.5357   4.8307   5.0272
     5.3302   5.7305   6.0186   6.7181   6.7991   7.0159   7.2269   7.4315
     7.4841   7.6311

     occupation numbers 
     1.0000   1.0000   1.0000   1.0000   1.0000   1.0000   1.0000   1.0000
     1.0000   1.0000   1.0000   1.0000   1.0000   1.0000   1.0000   1.0000
     1.0000   1.0000   1.0000   1.0000   1.0000   1.0000   1.0000   1.0000
     1.0000   1.0000   1.0000   1.0000   1.0000   1.0000   1.0000   1.0000
     1.0000   1.0000

          k =-0.1779 0.3081 0.0000 (  5396 PWs)   bands (ev):

   -46.1542 -46.1411 -34.0572 -34.0547 -22.5945 -22.5533 -22.4715 -22.4616
   -22.4282 -22.3176  -9.0294  -8.4850  -8.3699  -7.8100  -7.6793  -7.4156
     3.0163   3.2051   3.5496   3.6225   4.1819   4.5229   4.6647   4.9687
     5.6182   6.2679   6.5057   6.6582   6.9681   7.1078   7.2041   7.3774
     7.4366   7.6843

     occupation numbers 
     1.0000   1.0000   1.0000   1.0000   1.0000   1.0000   1.0000   1.0000
     1.0000   1.0000   1.0000   1.0000   1.0000   1.0000   1.0000   1.0000
     1.0000   1.0000   1.0000   1.0000   1.0000   1.0000   1.0000   1.0000
     1.0000   1.0000   1.0000   1.0000   1.0000   1.0000   1.0000   1.0000
     1.0000   1.0000

          k =-0.3558-0.2054 0.2642 (  5391 PWs)   bands (ev):

   -46.1525 -46.1427 -34.0569 -34.0550 -22.6094 -22.5673 -22.5523 -22.3983
   -22.3907 -22.3088  -9.0054  -8.5588  -8.3271  -7.9299  -7.5001  -7.4323
     3.0016   3.1216   3.4119   3.5802   4.1334   4.4764   5.1834   5.3909
     5.8901   6.1092   6.3429   6.6082   6.6479   6.9174   6.9736   7.2821
     7.3244   7.5639

     occupation numbers 
     1.0000   1.0000   1.0000   1.0000   1.0000   1.0000   1.0000   1.0000
     1.0000   1.0000   1.0000   1.0000   1.0000   1.0000   1.0000   1.0000
     1.0000   1.0000   1.0000   1.0000   1.0000   1.0000   1.0000   1.0000
     1.0000   1.0000   1.0000   1.0000   1.0000   1.0000   1.0000   1.0000
     1.0000   1.0000

          k =-0.3558 0.8217-0.0661 (  5401 PWs)   bands (ev):

   -46.1504 -46.1448 -34.0566 -34.0554 -22.5999 -22.5900 -22.5533 -22.4113
   -22.3512 -22.3240  -8.8581  -8.5639  -8.4664  -7.6902  -7.6116  -7.5628
     2.9339   3.1293   3.3564   3.6895   4.3795   4.7495   4.9654   5.4130
     5.6785   6.0810   6.3291   6.4864   6.6350   6.8404   7.0109   7.1226
     7.3562   7.5976

     occupation numbers 
     1.0000   1.0000   1.0000   1.0000   1.0000   1.0000   1.0000   1.0000
     1.0000   1.0000   1.0000   1.0000   1.0000   1.0000   1.0000   1.0000
     1.0000   1.0000   1.0000   1.0000   1.0000   1.0000   1.0000   1.0000
     1.0000   1.0000   1.0000   1.0000   1.0000   1.0000   1.0000   1.0000
     1.0000   1.0000

          k =-0.3558 0.6162 0.0000 (  5394 PWs)   bands (ev):

   -46.1476 -46.1476 -34.0560 -34.0560 -22.6010 -22.5657 -22.5152 -22.4513
   -22.3646 -22.3359  -8.7054  -8.5704  -8.2748  -7.8951  -7.8011  -7.5503
     2.9912   3.1819   3.6646   3.9742   4.3175   4.4325   4.8923   5.2770
     5.5575   5.8509   6.1787   6.4208   6.8477   6.8920   7.0290   7.3090
     7.3746   7.6195

     occupation numbers 
     1.0000   1.0000   1.0000   1.0000   1.0000   1.0000   1.0000   1.0000
     1.0000   1.0000   1.0000   1.0000   1.0000   1.0000   1.0000   1.0000
     1.0000   1.0000   1.0000   1.0000   1.0000   1.0000   1.0000   1.0000
     1.0000   1.0000   1.0000   1.0000   1.0000   1.0000   1.0000   1.0000
     1.0000   1.0000

          k = 0.5337 0.3081-0.3963 (  5388 PWs)   bands (ev):

   -46.1509 -46.1443 -34.0567 -34.0553 -22.6133 -22.6053 -22.5679 -22.3952
   -22.3362 -22.3092  -8.9392  -8.6176  -8.5217  -7.6262  -7.5245  -7.4758
     2.9835   2.9918   3.1111   3.3547   4.7030   4.9690   5.2604   5.6340
     5.7263   5.8587   6.2999   6.3605   6.6765   6.7892   6.9996   7.1030
     7.2966   7.5217

     occupation numbers 
     1.0000   1.0000   1.0000   1.0000   1.0000   1.0000   1.0000   1.0000
     1.0000   1.0000   1.0000   1.0000   1.0000   1.0000   1.0000   1.0000
     1.0000   1.0000   1.0000   1.0000   1.0000   1.0000   1.0000   1.0000
     1.0000   1.0000   1.0000   1.0000   1.0000   1.0000   1.0000   1.0000
     1.0000   1.0000

          k =-0.0000-0.0000 0.1982 (  5400 PWs)   bands (ev):

   -46.1562 -46.1392 -34.0574 -34.0543 -22.5863 -22.5863 -22.5033 -22.4187
   -22.4187 -22.3044  -9.2004  -8.5455  -8.5455  -7.6635  -7.4016  -7.4016
     3.1415   3.1415   3.3732   3.5383   3.5383   4.4780   5.3534   5.4036
     5.4036   6.5261   6.5302   6.5302   6.8052   7.0857   7.0857   7.2901
     7.7350   7.7350

     occupation numbers 
     1.0000   1.0000   1.0000   1.0000   1.0000   1.0000   1.0000   1.0000
     1.0000   1.0000   1.0000   1.0000   1.0000   1.0000   1.0000   1.0000
     1.0000   1.0000   1.0000   1.0000   1.0000   1.0000   1.0000   1.0000
     1.0000   1.0000   1.0000   1.0000   1.0000   1.0000   1.0000   1.0000
     1.0000   1.0000

          k =-0.0000-0.2054 0.2642 (  5392 PWs)   bands (ev):

   -46.1542 -46.1411 -34.0571 -34.0547 -22.5948 -22.5491 -22.4739 -22.4583
   -22.4293 -22.3187  -9.0491  -8.4738  -8.3621  -7.8751  -7.6344  -7.4185
     3.0569   3.2668   3.5975   3.8372   4.0398   4.6141   4.8338   4.9935
     5.3906   5.9650   6.3918   6.6594   6.7205   7.0907   7.2684   7.2886
     7.5962   7.6549

     occupation numbers 
     1.0000   1.0000   1.0000   1.0000   1.0000   1.0000   1.0000   1.0000
     1.0000   1.0000   1.0000   1.0000   1.0000   1.0000   1.0000   1.0000
     1.0000   1.0000   1.0000   1.0000   1.0000   1.0000   1.0000   1.0000
     1.0000   1.0000   1.0000   1.0000   1.0000   1.0000   1.0000   1.0000
     1.0000   1.0000

          k =-0.0000 0.8217-0.0661 (  5395 PWs)   bands (ev):

   -46.1505 -46.1448 -34.0565 -34.0554 -22.5848 -22.5102 -22.4998 -22.4728
   -22.4208 -22.3444  -8.7722  -8.2684  -8.2455  -8.0494  -7.9382  -7.5838
     3.0751   3.4866   3.9905   4.1042   4.2590   4.5214   4.5430   5.0532
     5.2416   5.3643   6.0857   6.5991   6.9198   6.9852   7.2833   7.3456
     7.4956   7.5427

     occupation numbers 
     1.0000   1.0000   1.0000   1.0000   1.0000   1.0000   1.0000   1.0000
     1.0000   1.0000   1.0000   1.0000   1.0000   1.0000   1.0000   1.0000
     1.0000   1.0000   1.0000   1.0000   1.0000   1.0000   1.0000   1.0000
     1.0000   1.0000   1.0000   1.0000   1.0000   1.0000   1.0000   1.0000
     1.0000   1.0000

          k =-0.0000 0.6162 0.0000 (  5394 PWs)   bands (ev):

   -46.1492 -46.1460 -34.0563 -34.0556 -22.5595 -22.5508 -22.5225 -22.4505
   -22.3873 -22.3643  -8.6467  -8.4374  -8.2864  -7.8726  -7.8548  -7.7492
     3.3456   3.4575   3.5800   3.7728   4.2306   4.5239   4.8596   5.0863
     5.4052   5.6721   6.0973   6.3291   6.8851   7.1188   7.1896   7.3434
     7.4013   7.6318

     occupation numbers 
     1.0000   1.0000   1.0000   1.0000   1.0000   1.0000   1.0000   1.0000
     1.0000   1.0000   1.0000   1.0000   1.0000   1.0000   1.0000   1.0000
     1.0000   1.0000   1.0000   1.0000   1.0000   1.0000   1.0000   1.0000
     1.0000   1.0000   1.0000   1.0000   1.0000   1.0000   1.0000   1.0000
     1.0000   1.0000

          k =-0.0000 0.4108 0.0661 (  5399 PWs)   bands (ev):

   -46.1533 -46.1420 -34.0570 -34.0548 -22.5927 -22.5591 -22.5004 -22.4409
   -22.4146 -22.3208  -8.9813  -8.5199  -8.1879  -8.0491  -7.5723  -7.4804
     3.1204   3.2441   3.3174   3.9914   4.0151   4.2299   4.8924   5.2389
     5.5106   6.2485   6.4985   6.7053   6.8043   6.9039   7.1458   7.3614
     7.4707   7.6519

     occupation numbers 
     1.0000   1.0000   1.0000   1.0000   1.0000   1.0000   1.0000   1.0000
     1.0000   1.0000   1.0000   1.0000   1.0000   1.0000   1.0000   1.0000
     1.0000   1.0000   1.0000   1.0000   1.0000   1.0000   1.0000   1.0000
     1.0000   1.0000   1.0000   1.0000   1.0000   1.0000   1.0000   1.0000
     1.0000   1.0000

          k =-0.1779-0.1027 0.3303 (  5380 PWs)   bands (ev):

   -46.1533 -46.1420 -34.0570 -34.0548 -22.5922 -22.5560 -22.4980 -22.4426
   -22.4140 -22.3222  -9.0077  -8.5009  -8.1797  -8.0878  -7.5765  -7.4700
     3.1920   3.2491   3.6555   3.9639   3.9861   4.3390   4.9232   5.2418
     5.3857   5.9816   6.2267   6.6644   6.7206   6.8747   7.0143   7.3446
     7.5271   7.6589

     occupation numbers 
     1.0000   1.0000   1.0000   1.0000   1.0000   1.0000   1.0000   1.0000
     1.0000   1.0000   1.0000   1.0000   1.0000   1.0000   1.0000   1.0000
     1.0000   1.0000   1.0000   1.0000   1.0000   1.0000   1.0000   1.0000
     1.0000   1.0000   1.0000   1.0000   1.0000   1.0000   1.0000   1.0000
     1.0000   1.0000

          k =-0.1779 0.9244 0.0000 (  5375 PWs)   bands (ev):

   -46.1509 -46.1444 -34.0566 -34.0553 -22.5991 -22.5501 -22.5281 -22.4339
   -22.3904 -22.3278  -8.8701  -8.4047  -8.3740  -7.8948  -7.7813  -7.4936
     3.0436   3.3429   3.6597   4.0623   4.1546   4.5146   4.7244   5.2376
     5.5097   5.8654   6.2584   6.4643   6.6734   6.8521   7.0628   7.2715
     7.4179   7.5510

     occupation numbers 
     1.0000   1.0000   1.0000   1.0000   1.0000   1.0000   1.0000   1.0000
     1.0000   1.0000   1.0000   1.0000   1.0000   1.0000   1.0000   1.0000
     1.0000   1.0000   1.0000   1.0000   1.0000   1.0000   1.0000   1.0000
     1.0000   1.0000   1.0000   1.0000   1.0000   1.0000   1.0000   1.0000
     1.0000   1.0000

          k =-0.1779 0.7189 0.0661 (  5400 PWs)   bands (ev):

   -46.1476 -46.1476 -34.0560 -34.0560 -22.5883 -22.5868 -22.4818 -22.4794
   -22.3487 -22.3479  -8.6652  -8.6485  -8.1667  -8.0567  -7.6442  -7.6235
     3.0681   3.1974   3.5997   3.8778   4.3817   4.7845   4.8095   5.1112
     5.4428   5.8678   6.3617   6.4830   6.5594   6.8537   7.0616   7.2482
     7.4180   7.5478

     occupation numbers 
     1.0000   1.0000   1.0000   1.0000   1.0000   1.0000   1.0000   1.0000
     1.0000   1.0000   1.0000   1.0000   1.0000   1.0000   1.0000   1.0000
     1.0000   1.0000   1.0000   1.0000   1.0000   1.0000   1.0000   1.0000
     1.0000   1.0000   1.0000   1.0000   1.0000   1.0000   1.0000   1.0000
     1.0000   1.0000

          k =-0.1779 0.5135 0.1321 (  5405 PWs)   bands (ev):

   -46.1509 -46.1444 -34.0566 -34.0553 -22.5990 -22.5518 -22.5307 -22.4340
   -22.3892 -22.3272  -8.8545  -8.4101  -8.3572  -7.8951  -7.7905  -7.4875
     2.9987   3.3541   3.5009   3.7907   4.1502   4.5739   4.7592   5.3713
     5.5470   6.0868   6.1940   6.5180   6.8200   6.9922   7.0822   7.1906
     7.4098   7.6331

     occupation numbers 
     1.0000   1.0000   1.0000   1.0000   1.0000   1.0000   1.0000   1.0000
     1.0000   1.0000   1.0000   1.0000   1.0000   1.0000   1.0000   1.0000
     1.0000   1.0000   1.0000   1.0000   1.0000   1.0000   1.0000   1.0000
     1.0000   1.0000   1.0000   1.0000   1.0000   1.0000   1.0000   1.0000
     1.0000   1.0000

          k = 0.7116 0.4108-0.3303 (  5390 PWs)   bands (ev):

   -46.1504 -46.1448 -34.0566 -34.0554 -22.5986 -22.5895 -22.5536 -22.4098
   -22.3515 -22.3251  -8.8723  -8.5718  -8.4548  -7.6932  -7.6304  -7.5462
     3.1412   3.2065   3.2109   3.6439   4.4794   4.6598   5.0671   5.3588
     5.8602   5.9604   6.3208   6.3318   6.6854   6.7558   6.9633   7.0340
     7.2329   7.5869

     occupation numbers 
     1.0000   1.0000   1.0000   1.0000   1.0000   1.0000   1.0000   1.0000
     1.0000   1.0000   1.0000   1.0000   1.0000   1.0000   1.0000   1.0000
     1.0000   1.0000   1.0000   1.0000   1.0000   1.0000   1.0000   1.0000
     1.0000   1.0000   1.0000   1.0000   1.0000   1.0000   1.0000   1.0000
     1.0000   1.0000

          k = 0.7116 0.2054-0.2642 (  5401 PWs)   bands (ev):

   -46.1492 -46.1460 -34.0564 -34.0557 -22.6040 -22.6015 -22.5285 -22.4320
   -22.3362 -22.3280  -8.7991  -8.6585  -8.3575  -7.8275  -7.5892  -7.5258
     2.9867   3.0169   3.3693   3.9082   4.1933   4.9563   5.1260   5.3310
     5.7911   5.9428   6.1769   6.3221   6.5961   6.7677   7.0542   7.1687
     7.2894   7.5753

     occupation numbers 
     1.0000   1.0000   1.0000   1.0000   1.0000   1.0000   1.0000   1.0000
     1.0000   1.0000   1.0000   1.0000   1.0000   1.0000   1.0000   1.0000
     1.0000   1.0000   1.0000   1.0000   1.0000   1.0000   1.0000   1.0000
     1.0000   1.0000   1.0000   1.0000   1.0000   1.0000   1.0000   1.0000
     1.0000   1.0000

          k = 0.7116-0.0000-0.1982 (  5414 PWs)   bands (ev):

   -46.1476 -46.1476 -34.0560 -34.0560 -22.5877 -22.5877 -22.4812 -22.4812
   -22.3479 -22.3479  -8.6525  -8.6525  -8.1156  -8.1156  -7.6305  -7.6305
     3.0807   3.0807   3.7638   3.7638   4.5043   4.5043   4.9849   4.9849
     5.6504   5.6504   6.4516   6.4516   6.7870   6.7870   7.1607   7.1607
     7.5198   7.5198

     occupation numbers 
     1.0000   1.0000   1.0000   1.0000   1.0000   1.0000   1.0000   1.0000
     1.0000   1.0000   1.0000   1.0000   1.0000   1.0000   1.0000   1.0000
     1.0000   1.0000   1.0000   1.0000   1.0000   1.0000   1.0000   1.0000
     1.0000   1.0000   1.0000   1.0000   1.0000   1.0000   1.0000   1.0000
     1.0000   1.0000

          k = 0.5337 0.3081-0.1982 (  5407 PWs)   bands (ev):

   -46.1504 -46.1448 -34.0566 -34.0554 -22.5989 -22.5903 -22.5546 -22.4101
   -22.3511 -22.3247  -8.8603  -8.5667  -8.4590  -7.6956  -7.6199  -7.5512
     3.0666   3.1946   3.2101   3.4984   4.4472   4.7821   5.0937   5.3439
     5.7906   5.9439   6.4046   6.6085   6.6939   6.7087   7.0094   7.0768
     7.2243   7.6087

     occupation numbers 
     1.0000   1.0000   1.0000   1.0000   1.0000   1.0000   1.0000   1.0000
     1.0000   1.0000   1.0000   1.0000   1.0000   1.0000   1.0000   1.0000
     1.0000   1.0000   1.0000   1.0000   1.0000   1.0000   1.0000   1.0000
     1.0000   1.0000   1.0000   1.0000   1.0000   1.0000   1.0000   1.0000
     1.0000   1.0000

          k =-0.0000-0.0000 0.3963 (  5379 PWs)   bands (ev):

   -46.1526 -46.1428 -34.0568 -34.0550 -22.5519 -22.5519 -22.4635 -22.4552
   -22.4552 -22.3487  -8.8995  -8.3224  -8.3224  -8.0159  -7.6647  -7.6647
     3.4887   3.4887   3.7612   4.1261   4.1261   4.7889   4.7889   4.8323
     4.8328   5.8052   5.8052   6.1863   6.7967   7.1822   7.1822   7.2685
     7.6377   7.6377

     occupation numbers 
     1.0000   1.0000   1.0000   1.0000   1.0000   1.0000   1.0000   1.0000
     1.0000   1.0000   1.0000   1.0000   1.0000   1.0000   1.0000   1.0000
     1.0000   1.0000   1.0000   1.0000   1.0000   1.0000   1.0000   1.0000
     1.0000   1.0000   1.0000   1.0000   1.0000   1.0000   1.0000   1.0000
     1.0000   1.0000

          k =-0.0000 1.0271 0.0661 (  5385 PWs)   bands (ev):

   -46.1505 -46.1448 -34.0565 -34.0554 -22.5824 -22.5096 -22.4992 -22.4700
   -22.4222 -22.3461  -8.7999  -8.2806  -8.2208  -8.0653  -7.9494  -7.5722
     3.3014   3.6454   3.9027   4.1964   4.2203   4.4839   4.7341   5.0713
     5.1940   5.2438   5.8573   6.4175   6.7749   6.8132   7.2740   7.3781
     7.4599   7.5112

     occupation numbers 
     1.0000   1.0000   1.0000   1.0000   1.0000   1.0000   1.0000   1.0000
     1.0000   1.0000   1.0000   1.0000   1.0000   1.0000   1.0000   1.0000
     1.0000   1.0000   1.0000   1.0000   1.0000   1.0000   1.0000   1.0000
     1.0000   1.0000   1.0000   1.0000   1.0000   1.0000   1.0000   1.0000
     1.0000   1.0000

          k =-0.0000 0.8217 0.1321 (  5377 PWs)   bands (ev):

   -46.1476 -46.1476 -34.0560 -34.0560 -22.6010 -22.5622 -22.5173 -22.4473
   -22.3671 -22.3363  -8.7144  -8.5996  -8.2574  -7.9017  -7.7897  -7.5577
     3.0409   3.4522   3.5589   4.0097   4.3140   4.3626   5.1049   5.2095
     5.6363   5.7516   6.2356   6.2480   6.5163   6.8435   7.1154   7.1339
     7.3112   7.6011

     occupation numbers 
     1.0000   1.0000   1.0000   1.0000   1.0000   1.0000   1.0000   1.0000
     1.0000   1.0000   1.0000   1.0000   1.0000   1.0000   1.0000   1.0000
     1.0000   1.0000   1.0000   1.0000   1.0000   1.0000   1.0000   1.0000
     1.0000   1.0000   1.0000   1.0000   1.0000   1.0000   1.0000   1.0000
     1.0000   1.0000

          k = 0.8895 0.5135-0.2642 (  5377 PWs)   bands (ev):

   -46.1493 -46.1460 -34.0563 -34.0556 -22.5586 -22.5475 -22.5183 -22.4497
   -22.3896 -22.3663  -8.6878  -8.4661  -8.2663  -7.8752  -7.8589  -7.7391
     3.5876   3.5907   3.7171   4.1954   4.3383   4.4285   4.6197   4.9107
     5.3115   5.5421   5.9001   6.0620   6.8552   6.9409   7.1117   7.3028
     7.3414   7.5746

     occupation numbers 
     1.0000   1.0000   1.0000   1.0000   1.0000   1.0000   1.0000   1.0000
     1.0000   1.0000   1.0000   1.0000   1.0000   1.0000   1.0000   1.0000
     1.0000   1.0000   1.0000   1.0000   1.0000   1.0000   1.0000   1.0000
     1.0000   1.0000   1.0000   1.0000   1.0000   1.0000   1.0000   1.0000
     1.0000   1.0000

          k = 0.8895 0.3081-0.1982 (  5376 PWs)   bands (ev):

   -46.1476 -46.1476 -34.0560 -34.0560 -22.5865 -22.5865 -22.4796 -22.4796
   -22.3491 -22.3491  -8.6727  -8.6727  -8.1081  -8.1081  -7.6334  -7.6334
     3.2416   3.2416   3.7308   3.7308   4.6585   4.6585   4.8850   4.8850
     5.6760   5.6760   6.2442   6.2442   6.7064   6.7064   7.0602   7.0602
     7.4700   7.4700

     occupation numbers 
     1.0000   1.0000   1.0000   1.0000   1.0000   1.0000   1.0000   1.0000
     1.0000   1.0000   1.0000   1.0000   1.0000   1.0000   1.0000   1.0000
     1.0000   1.0000   1.0000   1.0000   1.0000   1.0000   1.0000   1.0000
     1.0000   1.0000   1.0000   1.0000   1.0000   1.0000   1.0000   1.0000
     1.0000   1.0000

          k =-0.0000 0.0000-0.5945 (  5428 PWs)   bands (ev):

   -46.1477 -46.1477 -34.0559 -34.0559 -22.5041 -22.5041 -22.5041 -22.5041
   -22.4072 -22.4072  -8.4703  -8.4703  -8.0034  -8.0034  -8.0034  -8.0034
     4.0694   4.0694   4.0694   4.0694   4.2708   4.2708   4.9403   4.9403
     4.9403   4.9403   5.4454   5.4454   7.0880   7.0880   7.4112   7.4112
     7.4112   7.4112

     occupation numbers 
     1.0000   1.0000   1.0000   1.0000   1.0000   1.0000   1.0000   1.0000
     1.0000   1.0000   1.0000   1.0000   1.0000   1.0000   1.0000   1.0000
     1.0000   1.0000   1.0000   1.0000   1.0000   1.0000   1.0000   1.0000
     1.0000   1.0000   1.0000   1.0000   1.0000   1.0000   1.0000   1.0000
     1.0000   1.0000

     highest occupied level (ev):     7.7350

!    total energy              =    -936.83326252 Ry
     estimated scf accuracy    <          6.1E-15 Ry

     The total energy is the sum of the following terms:
     one-electron contribution =    -133.90493922 Ry
     hartree contribution      =     103.05712964 Ry
     xc contribution           =    -108.51859922 Ry
     ewald contribution        =    -334.00989730 Ry
     one-center paw contrib.   =    -463.45695642 Ry
      -> PAW hartree energy AE =     296.66558183 Ry
      -> PAW hartree energy PS =    -295.13265765 Ry
      -> PAW xc energy AE      =    -561.14533426 Ry
      -> PAW xc energy PS      =      96.15545366 Ry
      -> total E_H with PAW    =     104.59005382 Ry
      -> total E_XC with PAW   =    -573.50847982 Ry

     convergence has been achieved in  34 iterations

     Forces acting on atoms (cartesian axes, Ry/au):

     atom    1 type  1   force =    -0.00000000   -0.00000000    0.00027826
     atom    2 type  1   force =    -0.00000000   -0.00000000    0.00027826
     atom    3 type  2   force =    -0.01619197    0.00576856    0.00254609
     atom    4 type  2   force =     0.00310026   -0.01690694    0.00254609
     atom    5 type  2   force =     0.01309171    0.01113837    0.00254609
     atom    6 type  2   force =    -0.00310026   -0.01690694    0.00254609
     atom    7 type  2   force =     0.01619197    0.00576856    0.00254609
     atom    8 type  2   force =    -0.01309171    0.01113837    0.00254609
     atom    9 type  3   force =     0.00000000    0.00000000   -0.00791653
     atom   10 type  3   force =    -0.00000000   -0.00000000   -0.00791653
     The non-local contrib.  to forces
     atom    1 type  1   force =    -0.00000000   -0.00000000    0.01274886
     atom    2 type  1   force =    -0.00000000   -0.00000000    0.01274886
     atom    3 type  2   force =     0.30351663   -0.17036966   -0.04506337
     atom    4 type  2   force =    -0.00421386    0.34803795   -0.04506337
     atom    5 type  2   force =    -0.29930277   -0.17766829   -0.04506337
     atom    6 type  2   force =     0.00421386    0.34803795   -0.04506337
     atom    7 type  2   force =    -0.30351663   -0.17036966   -0.04506337
     atom    8 type  2   force =     0.29930277   -0.17766829   -0.04506337
     atom    9 type  3   force =    -0.00000000    0.00000000   -0.02084074
     atom   10 type  3   force =     0.00000000    0.00000000   -0.02084074
     The ionic contribution  to forces
     atom    1 type  1   force =    -0.00000000   -0.00000000   -1.11672933
     atom    2 type  1   force =    -0.00000000   -0.00000000   -1.11672933
     atom    3 type  2   force =    -3.75053761    2.78533908    0.40350526
     atom    4 type  2   force =    -0.53690559   -4.64073039    0.40350526
     atom    5 type  2   force =     4.28744321    1.85539131    0.40350526
     atom    6 type  2   force =     0.53690559   -4.64073039    0.40350526
     atom    7 type  2   force =     3.75053761    2.78533908    0.40350526
     atom    8 type  2   force =    -4.28744321    1.85539131    0.40350526
     atom    9 type  3   force =     0.00000000   -0.00000000   -0.09378645
     atom   10 type  3   force =     0.00000000    0.00000000   -0.09378646
     The local contribution  to forces
     atom    1 type  1   force =    -0.00000000   -0.00000000    1.10425872
     atom    2 type  1   force =    -0.00000000    0.00000000    1.10425872
     atom    3 type  2   force =     3.43168907   -2.61055701   -0.35576432
     atom    4 type  2   force =     0.54496415    4.27720842   -0.35576432
     atom    5 type  2   force =    -3.97665323   -1.66665141   -0.35576432
     atom    6 type  2   force =    -0.54496415    4.27720842   -0.35576432
     atom    7 type  2   force =    -3.43168907   -2.61055701   -0.35576432
     atom    8 type  2   force =     3.97665323   -1.66665141   -0.35576432
     atom    9 type  3   force =    -0.00000000    0.00000000    0.11095798
     atom   10 type  3   force =     0.00000000    0.00000000    0.11095798
     The core correction contribution to forces
     atom    1 type  1   force =     0.00000000    0.00000000    0.00000000
     atom    2 type  1   force =     0.00000000    0.00000000    0.00000000
     atom    3 type  2   force =    -0.00086005    0.00135613   -0.00013148
     atom    4 type  2   force =    -0.00074441   -0.00142289   -0.00013148
     atom    5 type  2   force =     0.00160446    0.00006676   -0.00013148
     atom    6 type  2   force =     0.00074441   -0.00142289   -0.00013148
     atom    7 type  2   force =     0.00086005    0.00135613   -0.00013148
     atom    8 type  2   force =    -0.00160446    0.00006676   -0.00013148
     atom    9 type  3   force =     0.00000000    0.00000000   -0.00424734
     atom   10 type  3   force =     0.00000000   -0.00000000   -0.00424734
     The Hubbard contrib.    to forces
     atom    1 type  1   force =     0.00000000    0.00000000    0.00000000
     atom    2 type  1   force =     0.00000000    0.00000000    0.00000000
     atom    3 type  2   force =     0.00000000    0.00000000    0.00000000
     atom    4 type  2   force =     0.00000000    0.00000000    0.00000000
     atom    5 type  2   force =     0.00000000    0.00000000    0.00000000
     atom    6 type  2   force =     0.00000000    0.00000000    0.00000000
     atom    7 type  2   force =     0.00000000    0.00000000    0.00000000
     atom    8 type  2   force =     0.00000000    0.00000000    0.00000000
     atom    9 type  3   force =     0.00000000    0.00000000    0.00000000
     atom   10 type  3   force =     0.00000000    0.00000000    0.00000000
     The SCF correction term to forces
     atom    1 type  1   force =     0.00000000    0.00000000   -0.00000000
     atom    2 type  1   force =    -0.00000000    0.00000000   -0.00000000
     atom    3 type  2   force =    -0.00000001    0.00000003   -0.00000000
     atom    4 type  2   force =    -0.00000002   -0.00000002   -0.00000000
     atom    5 type  2   force =     0.00000003   -0.00000000   -0.00000000
     atom    6 type  2   force =     0.00000002   -0.00000002   -0.00000000
     atom    7 type  2   force =     0.00000001    0.00000003   -0.00000000
     atom    8 type  2   force =    -0.00000003   -0.00000000   -0.00000000
     atom    9 type  3   force =    -0.00000000   -0.00000000    0.00000002
     atom   10 type  3   force =    -0.00000000   -0.00000000    0.00000002

     Total force =     0.044013     Total SCF correction =     0.000000


     Computing stress (Cartesian axis) and pressure

          total   stress  (Ry/bohr**3)                   (kbar)     P=       76.02
   0.00054156   0.00000000  -0.00000000           79.67        0.00       -0.00
  -0.00000000   0.00054156   0.00000000           -0.00       79.67        0.00
   0.00000000   0.00000000   0.00046710            0.00        0.00       68.71

     kinetic stress (kbar)  27703.51     -0.00      0.00
                               -0.00  27703.51      0.00
                               -0.00      0.00  27650.20

     local   stress (kbar) -13030.96     -0.00      0.00
                               -0.00 -13030.96      0.00
                                0.00      0.00 -11044.01

     nonloc. stress (kbar)   7192.90     -0.00      0.00
                               -0.00   7192.90      0.00
                                0.00      0.00   7241.50

     hartree stress (kbar)   7503.79      0.00     -0.00
                                0.00   7503.79      0.00
                               -0.00      0.00   7044.21

     exc-cor stress (kbar)   1099.97      0.00     -0.00
                                0.00   1099.97     -0.00
                               -0.00     -0.00   1096.71

     corecor stress (kbar)  -7076.02     -0.00      0.00
                               -0.00  -7076.02      0.00
                                0.00      0.00  -7076.74

     ewald   stress (kbar) -23313.52      0.00     -0.00
                                0.00 -23313.52     -0.00
                               -0.00     -0.00 -24843.15

     hubbard stress (kbar)      0.00      0.00      0.00
                                0.00      0.00      0.00
                                0.00      0.00      0.00

     DFT-D   stress (kbar)      0.00      0.00      0.00
                                0.00      0.00      0.00
                                0.00      0.00      0.00

     XDM     stress (kbar)      0.00      0.00      0.00
                                0.00      0.00      0.00
                                0.00      0.00      0.00

     dft-nl  stress (kbar)      0.00      0.00      0.00
                                0.00      0.00      0.00
                                0.00      0.00      0.00

     TS-vdW  stress (kbar)      0.00      0.00      0.00
                                0.00      0.00      0.00
                                0.00      0.00      0.00

     MDB     stress (kbar)      0.00      0.00      0.00
                                0.00      0.00      0.00
                                0.00      0.00      0.00

     3D-RISM stress (kbar)      0.00      0.00      0.00
                                0.00      0.00      0.00
                                0.00      0.00      0.00

     Message from routine punch:
     Nothing written, as per user request (disk_io='none')
 
     init_run     :      0.54s CPU      0.78s WALL (       1 calls)
     electrons    :     20.63s CPU     21.07s WALL (       1 calls)
     forces       :      0.07s CPU      0.08s WALL (       1 calls)
     stress       :      0.16s CPU      0.16s WALL (       1 calls)

     Called by init_run:
     wfcinit      :      0.18s CPU      0.29s WALL (       1 calls)
     wfcinit:atom :      0.02s CPU      0.03s WALL (      32 calls)
     wfcinit:wfcr :      0.13s CPU      0.21s WALL (      32 calls)
     potinit      :      0.09s CPU      0.12s WALL (       1 calls)
     hinit0       :      0.20s CPU      0.23s WALL (       1 calls)

     Called by electrons:
     c_bands      :     15.18s CPU     15.49s WALL (      34 calls)
     sum_band     :      2.27s CPU      2.30s WALL (      34 calls)
     v_of_rho     :      0.12s CPU      0.15s WALL (      35 calls)
     v_h          :      0.05s CPU      0.06s WALL (      35 calls)
     v_xc         :      0.08s CPU      0.09s WALL (      37 calls)
     newd         :      0.31s CPU      0.34s WALL (      35 calls)
     PAW_pot      :      2.47s CPU      2.53s WALL (      35 calls)
     mix_rho      :      0.23s CPU      0.24s WALL (      34 calls)

     Called by c_bands:
     init_us_2    :      0.71s CPU      0.73s WALL (    2272 calls)
     cegterg      :     13.67s CPU     13.95s WALL (    1088 calls)

     Called by sum_band:
     sum_band:wei :      0.00s CPU      0.00s WALL (      34 calls)
     sum_band:loo :      1.74s CPU      1.76s WALL (      34 calls)
     sum_band:buf :      0.28s CPU      0.29s WALL (    1088 calls)
     sum_band:ini :      0.34s CPU      0.35s WALL (    1088 calls)
     sum_band:cal :      0.02s CPU      0.02s WALL (    1088 calls)
     sum_band:bec :      0.40s CPU      0.40s WALL (    1088 calls)
     addusdens    :      0.35s CPU      0.35s WALL (      34 calls)
                                        0.35s GPU  (      34 calls)
     addusd:skk   :      0.01s CPU      0.01s WALL (     102 calls)
                                        0.01s GPU  (     102 calls)

     Called by *egterg:
     cdiaghg      :      6.00s CPU      6.16s WALL (    5324 calls)
                                        6.10s GPU  (    5324 calls)
     cegterg:over :      0.40s CPU      0.41s WALL (    4236 calls)
     cegterg:upda :      1.19s CPU      1.20s WALL (    4236 calls)
     cegterg:last :      0.16s CPU      0.16s WALL (    2847 calls)
     h_psi        :      3.92s CPU      4.17s WALL (    5356 calls)
     s_psi        :      1.34s CPU      1.36s WALL (    5356 calls)
     g_psi        :      0.08s CPU      0.08s WALL (    4236 calls)

     Called by h_psi:
     h_psi:calbec :      0.10s CPU      0.12s WALL (    5356 calls)
     vloc_psi     :      2.55s CPU      2.81s WALL (    5356 calls)
                                        2.76s GPU  (    5356 calls)
     add_vuspsi   :      1.12s CPU      1.15s WALL (    5356 calls)

     General routines
     calbec       :      0.11s CPU      0.14s WALL (    6988 calls)
     fft          :      0.04s CPU      0.09s WALL (     478 calls)
                                        0.04s GPU  (     443 calls)
     ffts         :      0.02s CPU      0.03s WALL (      69 calls)
                                        0.00s GPU  (      34 calls)
     fftw         :      0.18s CPU      1.74s WALL (   24844 calls)
                                        1.50s GPU  (   24844 calls)
     interpolate  :      0.08s CPU      0.10s WALL (      35 calls)
 
     Parallel routines

     PAW routines
     PAW_pot      :      2.47s CPU      2.53s WALL (      35 calls)
     PAW_symme    :      0.00s CPU      0.00s WALL (      69 calls)
 
     PWSCF        :     21.73s CPU     22.44s WALL

 
   This run was terminated on:  17: 6: 0  29Nov2025            

=------------------------------------------------------------------------------=
   JOB DONE.
=------------------------------------------------------------------------------=
