
     Program PWSCF v.7.5 starts on 29Nov2025 at 17: 5:41 

     This program is part of the open-source Quantum ESPRESSO suite
     for quantum simulation of materials; please cite
         "P. Giannozzi et al., J. Phys.:Condens. Matter 21 395502 (2009);
         "P. Giannozzi et al., J. Phys.:Condens. Matter 29 465901 (2017);
         "P. Giannozzi et al., J. Chem. Phys. 152 154105 (2020);
          URL http://www.quantum-espresso.org", 
     in publications or presentations arising from this work. More details at
     http://www.quantum-espresso.org/quote

     Parallel version (MPI & OpenMP), running on       1 processor cores
     Number of MPI processes:                 1
     Threads/MPI process:                     1

     MPI processes distributed on     1 nodes
     1878895 MiB available memory on the printing compute node when the environment starts
 
     Reading input from espresso.pwi
Warning: card &CELL ignored
Warning: card &FCP ignored
Warning: card &RISM ignored

     Current dimensions of program PWSCF are:
     Max number of different atomic species (ntypx) = 10
     Max number of k-points (npk) =  40000
     Max angular momentum in pseudopotentials (lmaxx) =  4
     file O.pbesol-n-kjpaw_psl.0.1.UPF: wavefunction(s)  2P renormalized
     file Nb.pbesol-spn-kjpaw_psl.0.3.0.UPF: wavefunction(s)  4S 4P renormalized
     Message from routine setup:
     using ibrav=0 with symmetry is DISCOURAGED, use correct ibrav instead
 
     Subspace diagonalization in iterative solution of the eigenvalue problem:
     a serial algorithm will be used

 
     G-vector sticks info
     --------------------
     sticks:   dense  smooth     PW     G-vecs:    dense   smooth      PW
     Sum        2845    1699    489                95703    44407    7001
 
     Using Slab Decomposition
 


     bravais-lattice index     =            0
     lattice parameter (alat)  =      10.4654  a.u.
     unit-cell volume          =     708.3159 (a.u.)^3
     number of atoms/cell      =           10
     number of atomic types    =            3
     number of electrons       =        68.00
     number of Kohn-Sham states=           34
     kinetic-energy cutoff     =      60.0000  Ry
     charge density cutoff     =     400.0000  Ry
     scf convergence threshold =      1.0E-12
     mixing beta               =       0.7000
     number of iterations used =            8  plain     mixing
     Exchange-correlation= SLA  PW   PSX  PSC
                           (   1   4  10   8   0   0   0)

     GPU acceleration is ACTIVE.  1 visible GPUs per MPI rank


     GPU used by master process:

        Device Number: 0
        Device name: NVIDIA B200
        Compute capability : 100
        Ratio of single to double precision performance  : 16
        Memory Clock Rate (KHz): 3996000
        Memory Bus Width (bits): 7680
        Peak Memory Bandwidth (GB/s): ******

     celldm(1)=  10.465432  celldm(2)=   0.000000  celldm(3)=   0.000000
     celldm(4)=   0.000000  celldm(5)=   0.000000  celldm(6)=   0.000000

     crystal axes: (cart. coord. in units of alat)
               a(1) = (   0.458572   0.264756   0.848302 )  
               a(2) = (  -0.458572   0.264756   0.848302 )  
               a(3) = (   0.000000  -0.529513   0.848302 )  

     reciprocal axes: (cart. coord. in units 2 pi/alat)
               b(1) = (  1.090342  0.629509  0.392942 )  
               b(2) = ( -1.090342  0.629509  0.392942 )  
               b(3) = (  0.000000 -1.259019  0.392942 )  


     PseudoPot. # 1 for Li read from file:
     /home/qhossain/SSSP_1.3.0_PBEsol_efficiency/li_pbesol_v1.4.uspp.F.UPF
     MD5 check sum: aa28d9aeea6a965f2dc95ee9517b3536
     Pseudo is Ultrasoft, Zval =  3.0
     Generated by new atomic code, or converted to UPF format
     Using radial grid of  751 points,  5 beta functions with: 
                l(1) =   0
                l(2) =   0
                l(3) =   0
                l(4) =   1
                l(5) =   1
     Q(r) pseudized with 10 coefficients,  rinner =    1.150   1.150   1.150


     PseudoPot. # 2 for O  read from file:
     /home/qhossain/SSSP_1.3.0_PBEsol_efficiency/O.pbesol-n-kjpaw_psl.0.1.UPF
     MD5 check sum: 81d73d1479e654e5638b0319f0d6c2c7
     Pseudo is Projector augmented-wave + core cor, Zval =  6.0
     Generated using "atomic" code by A. Dal Corso  v.6.0 svn rev. 13079
     Shape of augmentation charge: BESSEL
     Using radial grid of 1095 points,  4 beta functions with: 
                l(1) =   0
                l(2) =   0
                l(3) =   1
                l(4) =   1
     Q(r) pseudized with 0 coefficients 


     PseudoPot. # 3 for Nb read from file:
     /home/qhossain/SSSP_1.3.0_PBEsol_efficiency/Nb.pbesol-spn-kjpaw_psl.0.3.0.UPF
     MD5 check sum: 3501bca1474143575298708b2d32ca28
     Pseudo is Projector augmented-wave + core cor, Zval = 13.0
     Generated using "atomic" code by A. Dal Corso  v.6.0 svn rev. 13079
     Shape of augmentation charge: PSQ
     Using radial grid of 1227 points,  6 beta functions with: 
                l(1) =   0
                l(2) =   0
                l(3) =   1
                l(4) =   1
                l(5) =   2
                l(6) =   2
     Q(r) pseudized with 0 coefficients 


     atomic species   valence    mass     pseudopotential
     Li                3.00     6.94000     Li( 1.00)
     O                 6.00    15.99900     O ( 1.00)
     Nb               13.00    92.90637     Nb( 1.00)

      6 Sym. Ops. (no inversion) found ( 3 have fractional translation)


                                    s                        frac. trans.

      isym =  1     identity                                     

 cryst.   s( 1) = (     1          0          0      )
                  (     0          1          0      )
                  (     0          0          1      )

 cart.    s( 1) = (  1.0000000  0.0000000 -0.0000000 )
                  ( -0.0000000  1.0000000  0.0000000 )
                  (  0.0000000 -0.0000000  1.0000000 )


      isym =  2     120 deg rotation - cryst. axis [0,0,1]       

 cryst.   s( 2) = (     0          1          0      )
                  (     0          0          1      )
                  (     1          0          0      )

 cart.    s( 2) = ( -0.5000000 -0.8660254 -0.0000000 )
                  (  0.8660254 -0.5000000 -0.0000000 )
                  (  0.0000000  0.0000000  1.0000000 )


      isym =  3     120 deg rotation - cryst. axis [0,0,-1]      

 cryst.   s( 3) = (     0          0          1      )
                  (     1          0          0      )
                  (     0          1          0      )

 cart.    s( 3) = ( -0.5000000  0.8660254  0.0000000 )
                  ( -0.8660254 -0.5000000 -0.0000000 )
                  ( -0.0000000  0.0000000  1.0000000 )


      isym =  4     inv. 180 deg rotation - cart. axis [1,0,0]   

 cryst.   s( 4) = (     0          1          0      )    f =( -0.5000000 )
                  (     1          0          0      )       ( -0.5000000 )
                  (     0          0          1      )       ( -0.5000000 )

 cart.    s( 4) = ( -1.0000000  0.0000000 -0.0000000 )    f =( -0.0000000 )
                  (  0.0000000  1.0000000  0.0000000 )       (  0.0000000 )
                  ( -0.0000000 -0.0000000  1.0000000 )       ( -1.2724528 )


      isym =  5     inv. 180 deg rotation - cryst. axis [0,1,0]  

 cryst.   s( 5) = (     1          0          0      )    f =( -0.5000000 )
                  (     0          0          1      )       ( -0.5000000 )
                  (     0          1          0      )       ( -0.5000000 )

 cart.    s( 5) = (  0.5000000  0.8660254  0.0000000 )    f =(  0.0000000 )
                  (  0.8660254 -0.5000000 -0.0000000 )       ( -0.0000000 )
                  (  0.0000000  0.0000000  1.0000000 )       ( -1.2724528 )


      isym =  6     inv. 180 deg rotation - cryst. axis [1,1,0]  

 cryst.   s( 6) = (     0          0          1      )    f =( -0.5000000 )
                  (     0          1          0      )       ( -0.5000000 )
                  (     1          0          0      )       ( -0.5000000 )

 cart.    s( 6) = (  0.5000000 -0.8660254 -0.0000000 )    f =( -0.0000000 )
                  ( -0.8660254 -0.5000000 -0.0000000 )       ( -0.0000000 )
                  ( -0.0000000  0.0000000  1.0000000 )       ( -1.2724528 )


   Cartesian axes

     site n.     atom                  positions (alat units)
         1        Li     tau(   1) = (   0.0000000  -0.0000000   1.9937527  )
         2        Li     tau(   2) = (  -0.0000000  -0.0000000   0.7212999  )
         3        O      tau(   3) = (  -0.2939357  -0.0374882   1.4406812  )
         4        O      tau(   4) = (   0.1794336  -0.2358117   1.4406812  )
         5        O      tau(   5) = (   0.1145022   0.2732999   1.4406812  )
         6        O      tau(   6) = (   0.2791381   0.0289448   1.0165303  )
         7        O      tau(   7) = (  -0.1646360   0.2272683   1.0165303  )
         8        O      tau(   8) = (  -0.1145022  -0.2562131   1.0165303  )
         9        Nb     tau(   9) = (  -0.0000000  -0.0000000   1.2751914  )
        10        Nb     tau(  10) = (  -0.0000000  -0.0000000   0.0027386  )

   Crystallographic axes

     site n.     atom                  positions (cryst. coord.)
         1        Li     tau(   1) = (  0.7834289  0.7834289  0.7834289  )
         2        Li     tau(   2) = (  0.2834289  0.2834289  0.2834289  )
         3        O      tau(   3) = (  0.2220144  0.8629954  0.6133023  )
         4        O      tau(   4) = (  0.6133023  0.2220144  0.8629954  )
         5        O      tau(   5) = (  0.8629954  0.6133023  0.2220144  )
         6        O      tau(   6) = (  0.7220144  0.1133023  0.3629954  )
         7        O      tau(   7) = (  0.3629954  0.7220144  0.1133023  )
         8        O      tau(   8) = (  0.1133023  0.3629954  0.7220144  )
         9        Nb     tau(   9) = (  0.5010761  0.5010761  0.5010761  )
        10        Nb     tau(  10) = (  0.0010761  0.0010761  0.0010761  )

     number of k points=    32
                       cart. coord. in units 2pi/alat
        k(    1) = (   0.0000000   0.0000000   0.0000000), wk =   0.0092593
        k(    2) = (   0.0000000  -0.2098364   0.0654903), wk =   0.0555556
        k(    3) = (   0.0000000  -0.4196729   0.1309806), wk =   0.0555556
        k(    4) = (  -0.0000000   0.6295093  -0.1964709), wk =   0.0277778
        k(    5) = (  -0.1817237  -0.1049182   0.1309806), wk =   0.0555556
        k(    6) = (  -0.1817237  -0.3147546   0.1964709), wk =   0.1111111
        k(    7) = (  -0.1817237   0.7344275  -0.1309806), wk =   0.1111111
        k(    8) = (  -0.1817237   0.5245911  -0.0654903), wk =   0.1111111
        k(    9) = (  -0.1817237   0.3147546   0.0000000), wk =   0.0555556
        k(   10) = (  -0.3634474  -0.2098364   0.2619613), wk =   0.0555556
        k(   11) = (  -0.3634474   0.8393457  -0.0654903), wk =   0.1111111
        k(   12) = (  -0.3634474   0.6295093   0.0000000), wk =   0.0555556
        k(   13) = (   0.5451710   0.3147546  -0.3929419), wk =   0.0277778
        k(   14) = (   0.0000000   0.0000000   0.1964709), wk =   0.0185185
        k(   15) = (   0.0000000  -0.2098364   0.2619613), wk =   0.0555556
        k(   16) = (  -0.0000000   0.8393457  -0.0654903), wk =   0.0555556
        k(   17) = (  -0.0000000   0.6295093   0.0000000), wk =   0.0555556
        k(   18) = (  -0.0000000   0.4196729   0.0654903), wk =   0.0555556
        k(   19) = (  -0.1817237  -0.1049182   0.3274516), wk =   0.0555556
        k(   20) = (  -0.1817237   0.9442639   0.0000000), wk =   0.1111111
        k(   21) = (  -0.1817237   0.7344275   0.0654903), wk =   0.1111111
        k(   22) = (  -0.1817237   0.5245911   0.1309806), wk =   0.1111111
        k(   23) = (   0.7268947   0.4196729  -0.3274516), wk =   0.0555556
        k(   24) = (   0.7268947   0.2098364  -0.2619613), wk =   0.1111111
        k(   25) = (   0.7268947  -0.0000000  -0.1964709), wk =   0.0555556
        k(   26) = (   0.5451710   0.3147546  -0.1964709), wk =   0.0555556
        k(   27) = (   0.0000000   0.0000000   0.3929419), wk =   0.0185185
        k(   28) = (  -0.0000000   1.0491821   0.0654903), wk =   0.0555556
        k(   29) = (  -0.0000000   0.8393457   0.1309806), wk =   0.0555556
        k(   30) = (   0.9086184   0.5245911  -0.2619613), wk =   0.0555556
        k(   31) = (   0.9086184   0.3147546  -0.1964709), wk =   0.0555556
        k(   32) = (  -0.0000000   0.0000000  -0.5894128), wk =   0.0092593

                       cryst. coord.
        k(    1) = (   0.0000000   0.0000000   0.0000000), wk =   0.0092593
        k(    2) = (   0.0000000   0.0000000   0.1666667), wk =   0.0555556
        k(    3) = (   0.0000000   0.0000000   0.3333333), wk =   0.0555556
        k(    4) = (  -0.0000000  -0.0000000  -0.5000000), wk =   0.0277778
        k(    5) = (   0.0000000   0.1666667   0.1666667), wk =   0.0555556
        k(    6) = (  -0.0000000   0.1666667   0.3333333), wk =   0.1111111
        k(    7) = (  -0.0000000   0.1666667  -0.5000000), wk =   0.1111111
        k(    8) = (  -0.0000000   0.1666667  -0.3333333), wk =   0.1111111
        k(    9) = (  -0.0000000   0.1666667  -0.1666667), wk =   0.0555556
        k(   10) = (   0.0000000   0.3333333   0.3333333), wk =   0.0555556
        k(   11) = (  -0.0000000   0.3333333  -0.5000000), wk =   0.1111111
        k(   12) = (  -0.0000000   0.3333333  -0.3333333), wk =   0.0555556
        k(   13) = (  -0.0000000  -0.5000000  -0.5000000), wk =   0.0277778
        k(   14) = (   0.1666667   0.1666667   0.1666667), wk =   0.0185185
        k(   15) = (   0.1666667   0.1666667   0.3333333), wk =   0.0555556
        k(   16) = (   0.1666667   0.1666667  -0.5000000), wk =   0.0555556
        k(   17) = (   0.1666667   0.1666667  -0.3333333), wk =   0.0555556
        k(   18) = (   0.1666667   0.1666667  -0.1666667), wk =   0.0555556
        k(   19) = (   0.1666667   0.3333333   0.3333333), wk =   0.0555556
        k(   20) = (   0.1666667   0.3333333  -0.5000000), wk =   0.1111111
        k(   21) = (   0.1666667   0.3333333  -0.3333333), wk =   0.1111111
        k(   22) = (   0.1666667   0.3333333  -0.1666667), wk =   0.1111111
        k(   23) = (   0.1666667  -0.5000000  -0.5000000), wk =   0.0555556
        k(   24) = (   0.1666667  -0.5000000  -0.3333333), wk =   0.1111111
        k(   25) = (   0.1666667  -0.5000000  -0.1666667), wk =   0.0555556
        k(   26) = (   0.1666667  -0.3333333  -0.3333333), wk =   0.0555556
        k(   27) = (   0.3333333   0.3333333   0.3333333), wk =   0.0185185
        k(   28) = (   0.3333333   0.3333333  -0.5000000), wk =   0.0555556
        k(   29) = (   0.3333333   0.3333333  -0.3333333), wk =   0.0555556
        k(   30) = (   0.3333333  -0.5000000  -0.5000000), wk =   0.0555556
        k(   31) = (   0.3333333  -0.5000000  -0.3333333), wk =   0.0555556
        k(   32) = (  -0.5000000  -0.5000000  -0.5000000), wk =   0.0092593

     Dense  grid:    95703 G-vectors     FFT dimensions: (  72,  72,  72)

     Smooth grid:    44407 G-vectors     FFT dimensions: (  54,  54,  54)

     Dynamical RAM for                 wfc:       2.88 MB

     Dynamical RAM for     wfc (w. buffer):      95.17 MB

     Dynamical RAM for           str. fact:       4.38 MB

     Dynamical RAM for           local pot:       0.00 MB

     Dynamical RAM for          nlocal pot:       8.65 MB

     Dynamical RAM for                qrad:       4.82 MB

     Dynamical RAM for          rho,v,vnew:      12.92 MB

     Dynamical RAM for               rhoin:       4.31 MB

     Dynamical RAM for            rho*nmix:      23.36 MB

     Dynamical RAM for           G-vectors:       5.81 MB

     Dynamical RAM for          h,s,v(r/c):       0.21 MB

     Dynamical RAM for          <psi|beta>:       0.05 MB

     Dynamical RAM for                 psi:       5.77 MB

     Dynamical RAM for                hpsi:       5.77 MB

     Dynamical RAM for                spsi:       5.77 MB

     Dynamical RAM for      wfcinit/wfcrot:       5.79 MB

     Dynamical RAM for           addusdens:     280.38 MB

     Dynamical RAM for          addusforce:     295.74 MB

     Dynamical RAM for         addusstress:     293.52 MB

     Estimated static dynamical RAM per process >     156.15 MB

     Estimated max dynamical RAM per process >     475.25 MB

     Check: negative core charge=   -0.000005

     Initial potential from superposition of free atoms

     starting charge      67.0945, renormalised to      68.0000
     Starting wfcs are   54 randomized atomic wfcs
     Checking if some PAW data can be deallocated... 

     total cpu time spent up to now is        1.5 secs

     per-process dynamical memory:   557.8 Mb

     Self-consistent Calculation
[tb_dev] Currently allocated     1.86E+00 Mbytes, locked:    0 /   3
[tb_pin] Currently allocated     0.00E+00 Mbytes, locked:    0 /   0

     iteration #  1     ecut=    60.00 Ry     beta= 0.70
     Davidson diagonalization with overlap

---- Real-time Memory Report at c_bands before calling an iterative solver
           985 MiB given to the printing process from OS
           544 MiB allocation reported by mallinfo(arena+hblkhd)
       1878390 MiB available memory on the node where the printing process lives
     GPU memory used/free/total (MiB): 2275 / 180366 / 182642
------------------
     ethr =  1.00E-02,  avg # of iterations =  1.2

     total cpu time spent up to now is        1.9 secs

     total energy              =    -934.49431542 Ry
     estimated scf accuracy    <       4.36839354 Ry
[tb_dev] Currently allocated     0.00E+00 Mbytes, locked:    0 /   0
[tb_pin] Currently allocated     0.00E+00 Mbytes, locked:    0 /   0

     iteration #  2     ecut=    60.00 Ry     beta= 0.70
     Davidson diagonalization with overlap

---- Real-time Memory Report at c_bands before calling an iterative solver
          1036 MiB given to the printing process from OS
           619 MiB allocation reported by mallinfo(arena+hblkhd)
       1878374 MiB available memory on the node where the printing process lives
     GPU memory used/free/total (MiB): 2275 / 180366 / 182642
------------------
     ethr =  6.42E-03,  avg # of iterations =  8.3

     total cpu time spent up to now is        3.0 secs

     total energy              =    -934.11238085 Ry
     estimated scf accuracy    <      14.40289148 Ry
[tb_dev] Currently allocated     0.00E+00 Mbytes, locked:    0 /   0
[tb_pin] Currently allocated     0.00E+00 Mbytes, locked:    0 /   0

     iteration #  3     ecut=    60.00 Ry     beta= 0.70
     Davidson diagonalization with overlap

---- Real-time Memory Report at c_bands before calling an iterative solver
          1042 MiB given to the printing process from OS
           623 MiB allocation reported by mallinfo(arena+hblkhd)
       1878379 MiB available memory on the node where the printing process lives
     GPU memory used/free/total (MiB): 2277 / 180364 / 182642
------------------
     ethr =  6.42E-03,  avg # of iterations =  5.7

     total cpu time spent up to now is        3.7 secs

     total energy              =    -936.68047261 Ry
     estimated scf accuracy    <       0.05710618 Ry
[tb_dev] Currently allocated     0.00E+00 Mbytes, locked:    0 /   0
[tb_pin] Currently allocated     0.00E+00 Mbytes, locked:    0 /   0

     iteration #  4     ecut=    60.00 Ry     beta= 0.70
     Davidson diagonalization with overlap

---- Real-time Memory Report at c_bands before calling an iterative solver
          1044 MiB given to the printing process from OS
           624 MiB allocation reported by mallinfo(arena+hblkhd)
       1878379 MiB available memory on the node where the printing process lives
     GPU memory used/free/total (MiB): 2277 / 180364 / 182642
------------------
     ethr =  8.40E-05,  avg # of iterations =  9.4

     total cpu time spent up to now is        4.8 secs

     total energy              =    -936.70681291 Ry
     estimated scf accuracy    <       0.29707975 Ry
[tb_dev] Currently allocated     0.00E+00 Mbytes, locked:    0 /   0
[tb_pin] Currently allocated     0.00E+00 Mbytes, locked:    0 /   0

     iteration #  5     ecut=    60.00 Ry     beta= 0.70
     Davidson diagonalization with overlap

---- Real-time Memory Report at c_bands before calling an iterative solver
          1046 MiB given to the printing process from OS
           626 MiB allocation reported by mallinfo(arena+hblkhd)
       1878395 MiB available memory on the node where the printing process lives
     GPU memory used/free/total (MiB): 2277 / 180364 / 182642
------------------
     ethr =  8.40E-05,  avg # of iterations =  7.8

     total cpu time spent up to now is        5.8 secs

     total energy              =    -936.81205098 Ry
     estimated scf accuracy    <       0.31894545 Ry
[tb_dev] Currently allocated     0.00E+00 Mbytes, locked:    0 /   0
[tb_pin] Currently allocated     0.00E+00 Mbytes, locked:    0 /   0

     iteration #  6     ecut=    60.00 Ry     beta= 0.70
     Davidson diagonalization with overlap

---- Real-time Memory Report at c_bands before calling an iterative solver
          1048 MiB given to the printing process from OS
           627 MiB allocation reported by mallinfo(arena+hblkhd)
       1878360 MiB available memory on the node where the printing process lives
     GPU memory used/free/total (MiB): 2277 / 180364 / 182642
------------------
     ethr =  8.40E-05,  avg # of iterations =  5.5

     total cpu time spent up to now is        6.6 secs

     total energy              =    -936.81227377 Ry
     estimated scf accuracy    <       0.05467807 Ry
[tb_dev] Currently allocated     0.00E+00 Mbytes, locked:    0 /   0
[tb_pin] Currently allocated     0.00E+00 Mbytes, locked:    0 /   0

     iteration #  7     ecut=    60.00 Ry     beta= 0.70
     Davidson diagonalization with overlap

---- Real-time Memory Report at c_bands before calling an iterative solver
          1050 MiB given to the printing process from OS
           629 MiB allocation reported by mallinfo(arena+hblkhd)
       1878360 MiB available memory on the node where the printing process lives
     GPU memory used/free/total (MiB): 2277 / 180364 / 182642
------------------
     ethr =  8.04E-05,  avg # of iterations =  5.0

     total cpu time spent up to now is        7.3 secs

     total energy              =    -936.83760699 Ry
     estimated scf accuracy    <       0.00726401 Ry
[tb_dev] Currently allocated     0.00E+00 Mbytes, locked:    0 /   0
[tb_pin] Currently allocated     0.00E+00 Mbytes, locked:    0 /   0

     iteration #  8     ecut=    60.00 Ry     beta= 0.70
     Davidson diagonalization with overlap

---- Real-time Memory Report at c_bands before calling an iterative solver
          1056 MiB given to the printing process from OS
           633 MiB allocation reported by mallinfo(arena+hblkhd)
       1878401 MiB available memory on the node where the printing process lives
     GPU memory used/free/total (MiB): 2277 / 180364 / 182642
------------------
     ethr =  1.07E-05,  avg # of iterations =  2.0

     total cpu time spent up to now is        7.7 secs

     total energy              =    -936.83637525 Ry
     estimated scf accuracy    <       0.00465767 Ry
[tb_dev] Currently allocated     0.00E+00 Mbytes, locked:    0 /   0
[tb_pin] Currently allocated     0.00E+00 Mbytes, locked:    0 /   0

     iteration #  9     ecut=    60.00 Ry     beta= 0.70
     Davidson diagonalization with overlap

---- Real-time Memory Report at c_bands before calling an iterative solver
          1056 MiB given to the printing process from OS
           633 MiB allocation reported by mallinfo(arena+hblkhd)
       1878602 MiB available memory on the node where the printing process lives
     GPU memory used/free/total (MiB): 2277 / 180364 / 182642
------------------
     ethr =  6.85E-06,  avg # of iterations =  2.2

     total cpu time spent up to now is        8.2 secs

     total energy              =    -936.83640017 Ry
     estimated scf accuracy    <       0.00099223 Ry
[tb_dev] Currently allocated     0.00E+00 Mbytes, locked:    0 /   0
[tb_pin] Currently allocated     0.00E+00 Mbytes, locked:    0 /   0

     iteration # 10     ecut=    60.00 Ry     beta= 0.70
     Davidson diagonalization with overlap

---- Real-time Memory Report at c_bands before calling an iterative solver
          1057 MiB given to the printing process from OS
           634 MiB allocation reported by mallinfo(arena+hblkhd)
       1878561 MiB available memory on the node where the printing process lives
     GPU memory used/free/total (MiB): 2277 / 180364 / 182642
------------------
     ethr =  1.46E-06,  avg # of iterations =  5.0

     total cpu time spent up to now is        8.9 secs

     total energy              =    -936.83682770 Ry
     estimated scf accuracy    <       0.00004847 Ry
[tb_dev] Currently allocated     0.00E+00 Mbytes, locked:    0 /   0
[tb_pin] Currently allocated     0.00E+00 Mbytes, locked:    0 /   0

     iteration # 11     ecut=    60.00 Ry     beta= 0.70
     Davidson diagonalization with overlap

---- Real-time Memory Report at c_bands before calling an iterative solver
          1057 MiB given to the printing process from OS
           634 MiB allocation reported by mallinfo(arena+hblkhd)
       1878696 MiB available memory on the node where the printing process lives
     GPU memory used/free/total (MiB): 2277 / 180364 / 182642
------------------
     ethr =  7.13E-08,  avg # of iterations =  6.0

     total cpu time spent up to now is        9.7 secs

     total energy              =    -936.83685781 Ry
     estimated scf accuracy    <       0.00005583 Ry
[tb_dev] Currently allocated     0.00E+00 Mbytes, locked:    0 /   0
[tb_pin] Currently allocated     0.00E+00 Mbytes, locked:    0 /   0

     iteration # 12     ecut=    60.00 Ry     beta= 0.70
     Davidson diagonalization with overlap

---- Real-time Memory Report at c_bands before calling an iterative solver
          1057 MiB given to the printing process from OS
           634 MiB allocation reported by mallinfo(arena+hblkhd)
       1878695 MiB available memory on the node where the printing process lives
     GPU memory used/free/total (MiB): 2277 / 180364 / 182642
------------------
     ethr =  7.13E-08,  avg # of iterations =  1.2

     total cpu time spent up to now is       10.1 secs

     total energy              =    -936.83685018 Ry
     estimated scf accuracy    <       0.00002614 Ry
[tb_dev] Currently allocated     0.00E+00 Mbytes, locked:    0 /   0
[tb_pin] Currently allocated     0.00E+00 Mbytes, locked:    0 /   0

     iteration # 13     ecut=    60.00 Ry     beta= 0.70
     Davidson diagonalization with overlap

---- Real-time Memory Report at c_bands before calling an iterative solver
          1057 MiB given to the printing process from OS
           634 MiB allocation reported by mallinfo(arena+hblkhd)
       1878725 MiB available memory on the node where the printing process lives
     GPU memory used/free/total (MiB): 2277 / 180364 / 182642
------------------
     ethr =  3.84E-08,  avg # of iterations =  4.9

     total cpu time spent up to now is       10.7 secs

     total energy              =    -936.83685647 Ry
     estimated scf accuracy    <       0.00000003 Ry
[tb_dev] Currently allocated     0.00E+00 Mbytes, locked:    0 /   0
[tb_pin] Currently allocated     0.00E+00 Mbytes, locked:    0 /   0

     iteration # 14     ecut=    60.00 Ry     beta= 0.70
     Davidson diagonalization with overlap

---- Real-time Memory Report at c_bands before calling an iterative solver
          1057 MiB given to the printing process from OS
           634 MiB allocation reported by mallinfo(arena+hblkhd)
       1878754 MiB available memory on the node where the printing process lives
     GPU memory used/free/total (MiB): 2277 / 180364 / 182642
------------------
     ethr =  4.15E-11,  avg # of iterations = 13.2

     total cpu time spent up to now is       12.2 secs

     total energy              =    -936.83685714 Ry
     estimated scf accuracy    <       0.00000078 Ry
[tb_dev] Currently allocated     0.00E+00 Mbytes, locked:    0 /   0
[tb_pin] Currently allocated     0.00E+00 Mbytes, locked:    0 /   0

     iteration # 15     ecut=    60.00 Ry     beta= 0.70
     Davidson diagonalization with overlap

---- Real-time Memory Report at c_bands before calling an iterative solver
          1057 MiB given to the printing process from OS
           634 MiB allocation reported by mallinfo(arena+hblkhd)
       1878752 MiB available memory on the node where the printing process lives
     GPU memory used/free/total (MiB): 2277 / 180364 / 182642
------------------
     ethr =  4.15E-11,  avg # of iterations =  1.0

     total cpu time spent up to now is       12.6 secs

     total energy              =    -936.83685690 Ry
     estimated scf accuracy    <       0.00000069 Ry
[tb_dev] Currently allocated     0.00E+00 Mbytes, locked:    0 /   0
[tb_pin] Currently allocated     0.00E+00 Mbytes, locked:    0 /   0

     iteration # 16     ecut=    60.00 Ry     beta= 0.70
     Davidson diagonalization with overlap

---- Real-time Memory Report at c_bands before calling an iterative solver
          1057 MiB given to the printing process from OS
           634 MiB allocation reported by mallinfo(arena+hblkhd)
       1878752 MiB available memory on the node where the printing process lives
     GPU memory used/free/total (MiB): 2277 / 180364 / 182642
------------------
     ethr =  4.15E-11,  avg # of iterations =  6.8

     total cpu time spent up to now is       13.5 secs

     total energy              =    -936.83685699 Ry
     estimated scf accuracy    <       0.00000003 Ry
[tb_dev] Currently allocated     0.00E+00 Mbytes, locked:    0 /   0
[tb_pin] Currently allocated     0.00E+00 Mbytes, locked:    0 /   0

     iteration # 17     ecut=    60.00 Ry     beta= 0.70
     Davidson diagonalization with overlap

---- Real-time Memory Report at c_bands before calling an iterative solver
          1057 MiB given to the printing process from OS
           634 MiB allocation reported by mallinfo(arena+hblkhd)
       1878752 MiB available memory on the node where the printing process lives
     GPU memory used/free/total (MiB): 2277 / 180364 / 182642
------------------
     ethr =  3.79E-11,  avg # of iterations =  4.8

     total cpu time spent up to now is       14.1 secs

     total energy              =    -936.83685699 Ry
     estimated scf accuracy    <          4.4E-10 Ry
[tb_dev] Currently allocated     0.00E+00 Mbytes, locked:    0 /   0
[tb_pin] Currently allocated     0.00E+00 Mbytes, locked:    0 /   0

     iteration # 18     ecut=    60.00 Ry     beta= 0.70
     Davidson diagonalization with overlap

---- Real-time Memory Report at c_bands before calling an iterative solver
          1057 MiB given to the printing process from OS
           634 MiB allocation reported by mallinfo(arena+hblkhd)
       1878734 MiB available memory on the node where the printing process lives
     GPU memory used/free/total (MiB): 2277 / 180364 / 182642
------------------
     ethr =  6.53E-13,  avg # of iterations =  6.7

     total cpu time spent up to now is       15.0 secs

     total energy              =    -936.83685699 Ry
     estimated scf accuracy    <          4.6E-09 Ry
[tb_dev] Currently allocated     0.00E+00 Mbytes, locked:    0 /   0
[tb_pin] Currently allocated     0.00E+00 Mbytes, locked:    0 /   0

     iteration # 19     ecut=    60.00 Ry     beta= 0.70
     Davidson diagonalization with overlap

---- Real-time Memory Report at c_bands before calling an iterative solver
          1057 MiB given to the printing process from OS
           634 MiB allocation reported by mallinfo(arena+hblkhd)
       1878741 MiB available memory on the node where the printing process lives
     GPU memory used/free/total (MiB): 2277 / 180364 / 182642
------------------
     ethr =  6.53E-13,  avg # of iterations =  3.7

     total cpu time spent up to now is       15.6 secs

     total energy              =    -936.83685699 Ry
     estimated scf accuracy    <          2.4E-09 Ry
[tb_dev] Currently allocated     0.00E+00 Mbytes, locked:    0 /   0
[tb_pin] Currently allocated     0.00E+00 Mbytes, locked:    0 /   0

     iteration # 20     ecut=    60.00 Ry     beta= 0.70
     Davidson diagonalization with overlap

---- Real-time Memory Report at c_bands before calling an iterative solver
          1057 MiB given to the printing process from OS
           634 MiB allocation reported by mallinfo(arena+hblkhd)
       1878739 MiB available memory on the node where the printing process lives
     GPU memory used/free/total (MiB): 2277 / 180364 / 182642
------------------
     ethr =  6.53E-13,  avg # of iterations =  5.9

     total cpu time spent up to now is       16.4 secs

     total energy              =    -936.83685699 Ry
     estimated scf accuracy    <          6.4E-11 Ry
[tb_dev] Currently allocated     0.00E+00 Mbytes, locked:    0 /   0
[tb_pin] Currently allocated     0.00E+00 Mbytes, locked:    0 /   0

     iteration # 21     ecut=    60.00 Ry     beta= 0.70
     Davidson diagonalization with overlap

---- Real-time Memory Report at c_bands before calling an iterative solver
          1057 MiB given to the printing process from OS
           634 MiB allocation reported by mallinfo(arena+hblkhd)
       1878769 MiB available memory on the node where the printing process lives
     GPU memory used/free/total (MiB): 2277 / 180364 / 182642
------------------
     ethr =  1.00E-13,  avg # of iterations =  6.4

     total cpu time spent up to now is       17.2 secs

     total energy              =    -936.83685699 Ry
     estimated scf accuracy    <          1.0E-10 Ry
[tb_dev] Currently allocated     0.00E+00 Mbytes, locked:    0 /   0
[tb_pin] Currently allocated     0.00E+00 Mbytes, locked:    0 /   0

     iteration # 22     ecut=    60.00 Ry     beta= 0.70
     Davidson diagonalization with overlap

---- Real-time Memory Report at c_bands before calling an iterative solver
          1057 MiB given to the printing process from OS
           634 MiB allocation reported by mallinfo(arena+hblkhd)
       1878949 MiB available memory on the node where the printing process lives
     GPU memory used/free/total (MiB): 2277 / 180364 / 182642
------------------
     ethr =  1.00E-13,  avg # of iterations =  2.0

     total cpu time spent up to now is       17.6 secs

     total energy              =    -936.83685699 Ry
     estimated scf accuracy    <          4.1E-11 Ry
[tb_dev] Currently allocated     0.00E+00 Mbytes, locked:    0 /   0
[tb_pin] Currently allocated     0.00E+00 Mbytes, locked:    0 /   0

     iteration # 23     ecut=    60.00 Ry     beta= 0.70
     Davidson diagonalization with overlap

---- Real-time Memory Report at c_bands before calling an iterative solver
          1057 MiB given to the printing process from OS
           634 MiB allocation reported by mallinfo(arena+hblkhd)
       1878949 MiB available memory on the node where the printing process lives
     GPU memory used/free/total (MiB): 2277 / 180364 / 182642
------------------
     ethr =  1.00E-13,  avg # of iterations =  2.2

     total cpu time spent up to now is       18.1 secs

     total energy              =    -936.83685699 Ry
     estimated scf accuracy    <          8.8E-12 Ry
[tb_dev] Currently allocated     0.00E+00 Mbytes, locked:    0 /   0
[tb_pin] Currently allocated     0.00E+00 Mbytes, locked:    0 /   0

     iteration # 24     ecut=    60.00 Ry     beta= 0.70
     Davidson diagonalization with overlap

---- Real-time Memory Report at c_bands before calling an iterative solver
          1057 MiB given to the printing process from OS
           634 MiB allocation reported by mallinfo(arena+hblkhd)
       1878949 MiB available memory on the node where the printing process lives
     GPU memory used/free/total (MiB): 2277 / 180364 / 182642
------------------
     ethr =  1.00E-13,  avg # of iterations =  1.1

     total cpu time spent up to now is       18.5 secs

     total energy              =    -936.83685699 Ry
     estimated scf accuracy    <          2.4E-12 Ry
[tb_dev] Currently allocated     0.00E+00 Mbytes, locked:    0 /   0
[tb_pin] Currently allocated     0.00E+00 Mbytes, locked:    0 /   0

     iteration # 25     ecut=    60.00 Ry     beta= 0.70
     Davidson diagonalization with overlap

---- Real-time Memory Report at c_bands before calling an iterative solver
          1057 MiB given to the printing process from OS
           634 MiB allocation reported by mallinfo(arena+hblkhd)
       1878949 MiB available memory on the node where the printing process lives
     GPU memory used/free/total (MiB): 2277 / 180364 / 182642
------------------
     ethr =  1.00E-13,  avg # of iterations =  1.1

     total cpu time spent up to now is       18.9 secs

     End of self-consistent calculation

          k = 0.0000 0.0000 0.0000 (  5541 PWs)   bands (ev):

   -46.6794 -46.6631 -34.4903 -34.4872 -23.0591 -23.0591 -22.9864 -22.8954
   -22.8954 -22.7784  -9.6022  -8.9192  -8.9192  -7.9892  -7.7265  -7.7265
     2.7635   2.7635   2.9539   3.0908   3.0908   3.9779   5.2077   5.2743
     5.2743   6.1063   6.4030   6.4030   6.5268   6.7202   6.7202   6.8329
     7.3597   7.3597

     occupation numbers 
     1.0000   1.0000   1.0000   1.0000   1.0000   1.0000   1.0000   1.0000
     1.0000   1.0000   1.0000   1.0000   1.0000   1.0000   1.0000   1.0000
     1.0000   1.0000   1.0000   1.0000   1.0000   1.0000   1.0000   1.0000
     1.0000   1.0000   1.0000   1.0000   1.0000   1.0000   1.0000   1.0000
     1.0000   1.0000

          k = 0.0000-0.2098 0.0655 (  5545 PWs)   bands (ev):

   -46.6783 -46.6642 -34.4901 -34.4875 -23.0504 -23.0488 -22.9721 -22.9081
   -22.9070 -22.7923  -9.4886  -8.8555  -8.8536  -8.0676  -7.8383  -7.8219
     2.7150   2.8269   3.1337   3.3151   3.3465   4.0377   4.8863   5.0043
     5.0944   6.0651   6.1671   6.4368   6.4604   6.7891   6.8857   6.9226
     7.2009   7.2596

     occupation numbers 
     1.0000   1.0000   1.0000   1.0000   1.0000   1.0000   1.0000   1.0000
     1.0000   1.0000   1.0000   1.0000   1.0000   1.0000   1.0000   1.0000
     1.0000   1.0000   1.0000   1.0000   1.0000   1.0000   1.0000   1.0000
     1.0000   1.0000   1.0000   1.0000   1.0000   1.0000   1.0000   1.0000
     1.0000   1.0000

          k = 0.0000-0.4197 0.1310 (  5553 PWs)   bands (ev):

   -46.6753 -46.6672 -34.4897 -34.4881 -23.0244 -23.0202 -22.9419 -22.9386
   -22.9335 -22.8302  -9.1765  -8.6828  -8.6720  -8.3036  -8.1106  -8.0649
     2.8857   3.0663   3.4123   3.8200   3.8919   4.1718   4.2152   4.5563
     4.8057   5.4570   5.8744   6.1714   6.7294   6.7488   6.8611   6.9870
     7.1021   7.2492

     occupation numbers 
     1.0000   1.0000   1.0000   1.0000   1.0000   1.0000   1.0000   1.0000
     1.0000   1.0000   1.0000   1.0000   1.0000   1.0000   1.0000   1.0000
     1.0000   1.0000   1.0000   1.0000   1.0000   1.0000   1.0000   1.0000
     1.0000   1.0000   1.0000   1.0000   1.0000   1.0000   1.0000   1.0000
     1.0000   1.0000

          k =-0.0000 0.6295-0.1965 (  5516 PWs)   bands (ev):

   -46.6712 -46.6712 -34.4889 -34.4889 -22.9851 -22.9851 -22.9799 -22.9799
   -22.8819 -22.8819  -8.7597  -8.7597  -8.4276  -8.4276  -8.3390  -8.3390
     3.2769   3.2769   3.5602   3.5602   4.0178   4.0178   4.5108   4.5108
     5.0358   5.0358   5.4912   5.4912   6.8468   6.8468   7.0139   7.0139
     7.1227   7.1227

     occupation numbers 
     1.0000   1.0000   1.0000   1.0000   1.0000   1.0000   1.0000   1.0000
     1.0000   1.0000   1.0000   1.0000   1.0000   1.0000   1.0000   1.0000
     1.0000   1.0000   1.0000   1.0000   1.0000   1.0000   1.0000   1.0000
     1.0000   1.0000   1.0000   1.0000   1.0000   1.0000   1.0000   1.0000
     1.0000   1.0000

          k =-0.1817-0.1049 0.1310 (  5542 PWs)   bands (ev):

   -46.6781 -46.6645 -34.4901 -34.4875 -23.0621 -23.0402 -22.9604 -22.9320
   -22.8933 -22.7910  -9.4811  -8.9010  -8.7514  -8.1705  -7.8603  -7.7651
     2.7671   2.8348   3.0098   3.3684   3.4271   4.1987   4.5124   5.1595
     5.2494   6.0621   6.1209   6.3625   6.4350   6.6634   6.8063   6.9104
     7.2242   7.2815

     occupation numbers 
     1.0000   1.0000   1.0000   1.0000   1.0000   1.0000   1.0000   1.0000
     1.0000   1.0000   1.0000   1.0000   1.0000   1.0000   1.0000   1.0000
     1.0000   1.0000   1.0000   1.0000   1.0000   1.0000   1.0000   1.0000
     1.0000   1.0000   1.0000   1.0000   1.0000   1.0000   1.0000   1.0000
     1.0000   1.0000

          k =-0.1817-0.3148 0.1965 (  5549 PWs)   bands (ev):

   -46.6760 -46.6666 -34.4898 -34.4879 -23.0550 -23.0231 -22.9743 -22.9195
   -22.9041 -22.8096  -9.2983  -8.8220  -8.5490  -8.4231  -7.9824  -7.8985
     2.7130   3.0055   3.3758   3.5738   3.7425   3.9999   4.5261   4.7273
     5.1609   5.6874   6.0669   6.3226   6.4154   6.6163   6.7276   6.9438
     7.0864   7.2616

     occupation numbers 
     1.0000   1.0000   1.0000   1.0000   1.0000   1.0000   1.0000   1.0000
     1.0000   1.0000   1.0000   1.0000   1.0000   1.0000   1.0000   1.0000
     1.0000   1.0000   1.0000   1.0000   1.0000   1.0000   1.0000   1.0000
     1.0000   1.0000   1.0000   1.0000   1.0000   1.0000   1.0000   1.0000
     1.0000   1.0000

          k =-0.1817 0.7344-0.1310 (  5562 PWs)   bands (ev):

   -46.6726 -46.6699 -34.4892 -34.4886 -23.0287 -23.0168 -22.9900 -22.9366
   -22.8718 -22.8478  -8.9747  -8.7814  -8.6332  -8.2457  -8.2233  -8.1549
     2.9055   3.1458   3.3839   3.8092   4.0174   4.1491   4.3376   4.6136
     4.8885   5.3173   5.7760   6.1046   6.5217   6.6984   6.7832   6.9226
     7.1008   7.1911

     occupation numbers 
     1.0000   1.0000   1.0000   1.0000   1.0000   1.0000   1.0000   1.0000
     1.0000   1.0000   1.0000   1.0000   1.0000   1.0000   1.0000   1.0000
     1.0000   1.0000   1.0000   1.0000   1.0000   1.0000   1.0000   1.0000
     1.0000   1.0000   1.0000   1.0000   1.0000   1.0000   1.0000   1.0000
     1.0000   1.0000

          k =-0.1817 0.5246-0.0655 (  5551 PWs)   bands (ev):

   -46.6736 -46.6689 -34.4894 -34.4884 -23.0462 -22.9879 -22.9796 -22.9482
   -22.8974 -22.8322  -9.0858  -8.6275  -8.5349  -8.4341  -8.3465  -7.9797
     2.8426   3.2662   3.4313   3.5782   3.7883   4.2077   4.4658   4.6593
     5.0026   5.3648   5.6612   6.3218   6.3991   6.6692   6.8002   7.0095
     7.0816   7.2279

     occupation numbers 
     1.0000   1.0000   1.0000   1.0000   1.0000   1.0000   1.0000   1.0000
     1.0000   1.0000   1.0000   1.0000   1.0000   1.0000   1.0000   1.0000
     1.0000   1.0000   1.0000   1.0000   1.0000   1.0000   1.0000   1.0000
     1.0000   1.0000   1.0000   1.0000   1.0000   1.0000   1.0000   1.0000
     1.0000   1.0000

          k =-0.1817 0.3148 0.0000 (  5546 PWs)   bands (ev):

   -46.6767 -46.6658 -34.4899 -34.4878 -23.0556 -23.0207 -22.9453 -22.9427
   -22.9142 -22.8064  -9.3380  -8.7978  -8.6922  -8.2277  -8.0707  -7.8381
     2.7469   2.9390   3.2966   3.3681   3.8394   4.2095   4.3476   4.5682
     5.2730   5.9209   6.0954   6.2139   6.5887   6.7362   6.7692   6.9658
     7.0360   7.2915

     occupation numbers 
     1.0000   1.0000   1.0000   1.0000   1.0000   1.0000   1.0000   1.0000
     1.0000   1.0000   1.0000   1.0000   1.0000   1.0000   1.0000   1.0000
     1.0000   1.0000   1.0000   1.0000   1.0000   1.0000   1.0000   1.0000
     1.0000   1.0000   1.0000   1.0000   1.0000   1.0000   1.0000   1.0000
     1.0000   1.0000

          k =-0.3634-0.2098 0.2620 (  5563 PWs)   bands (ev):

   -46.6753 -46.6672 -34.4897 -34.4881 -23.0681 -23.0320 -23.0193 -22.8893
   -22.8764 -22.7999  -9.3109  -8.8655  -8.6793  -8.3009  -7.9319  -7.8456
     2.7323   2.8905   3.0925   3.2747   3.8241   4.1803   4.8357   5.0257
     5.5135   5.7750   5.9951   6.2175   6.2696   6.4476   6.5704   6.8993
     6.9364   7.1973

     occupation numbers 
     1.0000   1.0000   1.0000   1.0000   1.0000   1.0000   1.0000   1.0000
     1.0000   1.0000   1.0000   1.0000   1.0000   1.0000   1.0000   1.0000
     1.0000   1.0000   1.0000   1.0000   1.0000   1.0000   1.0000   1.0000
     1.0000   1.0000   1.0000   1.0000   1.0000   1.0000   1.0000   1.0000
     1.0000   1.0000

          k =-0.3634 0.8393-0.0655 (  5580 PWs)   bands (ev):

   -46.6736 -46.6689 -34.4894 -34.4884 -23.0602 -23.0516 -23.0197 -22.9006
   -22.8418 -22.8140  -9.1722  -8.8939  -8.7832  -8.0892  -8.0292  -7.9651
     2.6745   2.8419   3.0799   3.3851   4.0660   4.4162   4.6346   5.0774
     5.3370   5.7167   5.9606   6.1111   6.2374   6.4669   6.5927   6.7146
     6.9685   7.2167

     occupation numbers 
     1.0000   1.0000   1.0000   1.0000   1.0000   1.0000   1.0000   1.0000
     1.0000   1.0000   1.0000   1.0000   1.0000   1.0000   1.0000   1.0000
     1.0000   1.0000   1.0000   1.0000   1.0000   1.0000   1.0000   1.0000
     1.0000   1.0000   1.0000   1.0000   1.0000   1.0000   1.0000   1.0000
     1.0000   1.0000

          k =-0.3634 0.6295 0.0000 (  5560 PWs)   bands (ev):

   -46.6712 -46.6712 -34.4889 -34.4889 -23.0611 -23.0312 -22.9867 -22.9344
   -22.8500 -22.8275  -9.0237  -8.9066  -8.6122  -8.2785  -8.1852  -7.9637
     2.7102   2.9074   3.3721   3.6848   4.0200   4.1191   4.5887   4.8986
     5.1618   5.4808   5.8104   6.0868   6.4602   6.5415   6.6001   6.9069
     6.9766   7.2149

     occupation numbers 
     1.0000   1.0000   1.0000   1.0000   1.0000   1.0000   1.0000   1.0000
     1.0000   1.0000   1.0000   1.0000   1.0000   1.0000   1.0000   1.0000
     1.0000   1.0000   1.0000   1.0000   1.0000   1.0000   1.0000   1.0000
     1.0000   1.0000   1.0000   1.0000   1.0000   1.0000   1.0000   1.0000
     1.0000   1.0000

          k = 0.5452 0.3148-0.3929 (  5586 PWs)   bands (ev):

   -46.6739 -46.6685 -34.4895 -34.4883 -23.0715 -23.0647 -23.0323 -22.8870
   -22.8292 -22.8010  -9.2461  -8.9426  -8.8333  -8.0319  -7.9540  -7.8843
     2.7067   2.7212   2.8873   3.0196   4.3690   4.6073   4.9417   5.3136
     5.3761   5.4947   5.9709   5.9857   6.3119   6.3650   6.5905   6.6863
     6.8982   7.1611

     occupation numbers 
     1.0000   1.0000   1.0000   1.0000   1.0000   1.0000   1.0000   1.0000
     1.0000   1.0000   1.0000   1.0000   1.0000   1.0000   1.0000   1.0000
     1.0000   1.0000   1.0000   1.0000   1.0000   1.0000   1.0000   1.0000
     1.0000   1.0000   1.0000   1.0000   1.0000   1.0000   1.0000   1.0000
     1.0000   1.0000

          k = 0.0000 0.0000 0.1965 (  5563 PWs)   bands (ev):

   -46.6783 -46.6643 -34.4901 -34.4875 -23.0485 -23.0485 -22.9733 -22.9067
   -22.9067 -22.7932  -9.5042  -8.8471  -8.8471  -8.1100  -7.8161  -7.8161
     2.8668   2.8668   3.0920   3.2979   3.2979   4.0916   4.9752   5.0333
     5.0333   6.0927   6.0927   6.1998   6.3260   6.7536   6.7536   6.8481
     7.3644   7.3644

     occupation numbers 
     1.0000   1.0000   1.0000   1.0000   1.0000   1.0000   1.0000   1.0000
     1.0000   1.0000   1.0000   1.0000   1.0000   1.0000   1.0000   1.0000
     1.0000   1.0000   1.0000   1.0000   1.0000   1.0000   1.0000   1.0000
     1.0000   1.0000   1.0000   1.0000   1.0000   1.0000   1.0000   1.0000
     1.0000   1.0000

          k = 0.0000-0.2098 0.2620 (  5559 PWs)   bands (ev):

   -46.6767 -46.6659 -34.4899 -34.4878 -23.0558 -23.0170 -22.9469 -22.9402
   -22.9150 -22.8074  -9.3611  -8.7867  -8.6815  -8.2924  -8.0270  -7.8380
     2.7771   3.0198   3.3163   3.5631   3.7344   4.2438   4.4731   4.6408
     5.0422   5.5630   5.9971   6.2436   6.3470   6.7119   6.8616   6.9340
     7.2165   7.2598

     occupation numbers 
     1.0000   1.0000   1.0000   1.0000   1.0000   1.0000   1.0000   1.0000
     1.0000   1.0000   1.0000   1.0000   1.0000   1.0000   1.0000   1.0000
     1.0000   1.0000   1.0000   1.0000   1.0000   1.0000   1.0000   1.0000
     1.0000   1.0000   1.0000   1.0000   1.0000   1.0000   1.0000   1.0000
     1.0000   1.0000

          k =-0.0000 0.8393-0.0655 (  5567 PWs)   bands (ev):

   -46.6736 -46.6689 -34.4893 -34.4884 -23.0474 -22.9841 -22.9753 -22.9510
   -22.8994 -22.8324  -9.0963  -8.6317  -8.5890  -8.4094  -8.3053  -7.9914
     2.7989   3.2266   3.6637   3.8165   3.9252   4.2058   4.2075   4.7174
     4.8700   5.0005   5.7687   6.2104   6.5296   6.5704   6.8663   6.9688
     7.1086   7.1382

     occupation numbers 
     1.0000   1.0000   1.0000   1.0000   1.0000   1.0000   1.0000   1.0000
     1.0000   1.0000   1.0000   1.0000   1.0000   1.0000   1.0000   1.0000
     1.0000   1.0000   1.0000   1.0000   1.0000   1.0000   1.0000   1.0000
     1.0000   1.0000   1.0000   1.0000   1.0000   1.0000   1.0000   1.0000
     1.0000   1.0000

          k =-0.0000 0.6295 0.0000 (  5567 PWs)   bands (ev):

   -46.6726 -46.6699 -34.4892 -34.4886 -23.0259 -23.0184 -22.9935 -22.9337
   -22.8714 -22.8488  -8.9802  -8.7804  -8.6192  -8.2526  -8.2483  -8.1322
     3.0687   3.1692   3.2796   3.4930   3.9350   4.1837   4.5176   4.7588
     5.0830   5.3107   5.7008   5.9414   6.4969   6.7115   6.7951   6.9324
     7.0088   7.2404

     occupation numbers 
     1.0000   1.0000   1.0000   1.0000   1.0000   1.0000   1.0000   1.0000
     1.0000   1.0000   1.0000   1.0000   1.0000   1.0000   1.0000   1.0000
     1.0000   1.0000   1.0000   1.0000   1.0000   1.0000   1.0000   1.0000
     1.0000   1.0000   1.0000   1.0000   1.0000   1.0000   1.0000   1.0000
     1.0000   1.0000

          k =-0.0000 0.4197 0.0655 (  5540 PWs)   bands (ev):

   -46.6759 -46.6665 -34.4898 -34.4879 -23.0541 -23.0251 -22.9754 -22.9190
   -22.9033 -22.8095  -9.2913  -8.8286  -8.5316  -8.4286  -7.9956  -7.8899
     2.8485   2.9719   3.0658   3.6658   3.7193   3.9439   4.5472   4.8721
     5.1648   5.8659   6.1412   6.2765   6.3980   6.4729   6.7705   6.9698
     7.0621   7.2616

     occupation numbers 
     1.0000   1.0000   1.0000   1.0000   1.0000   1.0000   1.0000   1.0000
     1.0000   1.0000   1.0000   1.0000   1.0000   1.0000   1.0000   1.0000
     1.0000   1.0000   1.0000   1.0000   1.0000   1.0000   1.0000   1.0000
     1.0000   1.0000   1.0000   1.0000   1.0000   1.0000   1.0000   1.0000
     1.0000   1.0000

          k =-0.1817-0.1049 0.3275 (  5550 PWs)   bands (ev):

   -46.6760 -46.6666 -34.4897 -34.4879 -23.0535 -23.0223 -22.9732 -22.9204
   -22.9027 -22.8107  -9.3222  -8.8091  -8.5205  -8.4733  -7.9926  -7.8775
     2.9065   2.9947   3.3602   3.6458   3.7136   4.0076   4.5513   4.8806
     5.0189   5.5812   5.8400   6.1961   6.3689   6.5523   6.6686   6.9394
     7.1459   7.2895

     occupation numbers 
     1.0000   1.0000   1.0000   1.0000   1.0000   1.0000   1.0000   1.0000
     1.0000   1.0000   1.0000   1.0000   1.0000   1.0000   1.0000   1.0000
     1.0000   1.0000   1.0000   1.0000   1.0000   1.0000   1.0000   1.0000
     1.0000   1.0000   1.0000   1.0000   1.0000   1.0000   1.0000   1.0000
     1.0000   1.0000

          k =-0.1817 0.9443 0.0000 (  5553 PWs)   bands (ev):

   -46.6740 -46.6685 -34.4894 -34.4883 -23.0594 -23.0175 -22.9983 -22.9189
   -22.8750 -22.8178  -9.1872  -8.7497  -8.7043  -8.2695  -8.1712  -7.9085
     2.7664   3.0771   3.3525   3.7589   3.8296   4.1809   4.4018   4.8888
     5.1508   5.4711   5.9094   6.0751   6.2715   6.4997   6.6799   6.8934
     7.0219   7.1732

     occupation numbers 
     1.0000   1.0000   1.0000   1.0000   1.0000   1.0000   1.0000   1.0000
     1.0000   1.0000   1.0000   1.0000   1.0000   1.0000   1.0000   1.0000
     1.0000   1.0000   1.0000   1.0000   1.0000   1.0000   1.0000   1.0000
     1.0000   1.0000   1.0000   1.0000   1.0000   1.0000   1.0000   1.0000
     1.0000   1.0000

          k =-0.1817 0.7344 0.0655 (  5565 PWs)   bands (ev):

   -46.6712 -46.6712 -34.4889 -34.4889 -23.0503 -23.0489 -22.9589 -22.9569
   -22.8378 -22.8372  -8.9905  -8.9749  -8.5165  -8.4207  -8.0483  -8.0262
     2.7915   2.9004   3.3292   3.5899   4.0676   4.4488   4.4732   4.7761
     5.0719   5.5155   5.9768   6.0855   6.2073   6.4632   6.6772   6.8613
     7.0271   7.1508

     occupation numbers 
     1.0000   1.0000   1.0000   1.0000   1.0000   1.0000   1.0000   1.0000
     1.0000   1.0000   1.0000   1.0000   1.0000   1.0000   1.0000   1.0000
     1.0000   1.0000   1.0000   1.0000   1.0000   1.0000   1.0000   1.0000
     1.0000   1.0000   1.0000   1.0000   1.0000   1.0000   1.0000   1.0000
     1.0000   1.0000

          k =-0.1817 0.5246 0.1310 (  5563 PWs)   bands (ev):

   -46.6739 -46.6685 -34.4894 -34.4883 -23.0594 -23.0191 -23.0007 -22.9190
   -22.8740 -22.8172  -9.1677  -8.7435  -8.6962  -8.2721  -8.1831  -7.9059
     2.7244   3.0848   3.2059   3.5070   3.8508   4.2554   4.4330   5.0020
     5.2031   5.6985   5.8288   6.1445   6.4175   6.5917   6.6899   6.7824
     7.0234   7.2389

     occupation numbers 
     1.0000   1.0000   1.0000   1.0000   1.0000   1.0000   1.0000   1.0000
     1.0000   1.0000   1.0000   1.0000   1.0000   1.0000   1.0000   1.0000
     1.0000   1.0000   1.0000   1.0000   1.0000   1.0000   1.0000   1.0000
     1.0000   1.0000   1.0000   1.0000   1.0000   1.0000   1.0000   1.0000
     1.0000   1.0000

          k = 0.7269 0.4197-0.3275 (  5562 PWs)   bands (ev):

   -46.6736 -46.6689 -34.4894 -34.4884 -23.0589 -23.0511 -23.0198 -22.8993
   -22.8420 -22.8148  -9.1885  -8.9039  -8.7709  -8.0899  -8.0477  -7.9468
     2.8624   2.9176   2.9501   3.3310   4.1523   4.3234   4.7345   5.0059
     5.5063   5.6052   5.9296   5.9607   6.3159   6.3362   6.5802   6.6888
     6.8553   7.2104

     occupation numbers 
     1.0000   1.0000   1.0000   1.0000   1.0000   1.0000   1.0000   1.0000
     1.0000   1.0000   1.0000   1.0000   1.0000   1.0000   1.0000   1.0000
     1.0000   1.0000   1.0000   1.0000   1.0000   1.0000   1.0000   1.0000
     1.0000   1.0000   1.0000   1.0000   1.0000   1.0000   1.0000   1.0000
     1.0000   1.0000

          k = 0.7269 0.2098-0.2620 (  5571 PWs)   bands (ev):

   -46.6726 -46.6699 -34.4892 -34.4886 -23.0637 -23.0615 -22.9983 -22.9173
   -22.8285 -22.8187  -9.1157  -8.9813  -8.6868  -8.2161  -7.9979  -7.9391
     2.7098   2.7335   3.1044   3.6105   3.8791   4.6047   4.7931   4.9726
     5.4372   5.5752   5.8182   5.9677   6.2140   6.3772   6.6815   6.7710
     6.8964   7.1901

     occupation numbers 
     1.0000   1.0000   1.0000   1.0000   1.0000   1.0000   1.0000   1.0000
     1.0000   1.0000   1.0000   1.0000   1.0000   1.0000   1.0000   1.0000
     1.0000   1.0000   1.0000   1.0000   1.0000   1.0000   1.0000   1.0000
     1.0000   1.0000   1.0000   1.0000   1.0000   1.0000   1.0000   1.0000
     1.0000   1.0000

          k = 0.7269-0.0000-0.1965 (  5558 PWs)   bands (ev):

   -46.6712 -46.6712 -34.4889 -34.4889 -23.0498 -23.0498 -22.9585 -22.9585
   -22.8372 -22.8372  -8.9768  -8.9768  -8.4728  -8.4728  -8.0354  -8.0354
     2.7995   2.7995   3.4827   3.4827   4.1994   4.1994   4.6269   4.6269
     5.2940   5.2940   6.0833   6.0833   6.3943   6.3943   6.7685   6.7685
     7.1202   7.1202

     occupation numbers 
     1.0000   1.0000   1.0000   1.0000   1.0000   1.0000   1.0000   1.0000
     1.0000   1.0000   1.0000   1.0000   1.0000   1.0000   1.0000   1.0000
     1.0000   1.0000   1.0000   1.0000   1.0000   1.0000   1.0000   1.0000
     1.0000   1.0000   1.0000   1.0000   1.0000   1.0000   1.0000   1.0000
     1.0000   1.0000

          k = 0.5452 0.3148-0.1965 (  5566 PWs)   bands (ev):

   -46.6736 -46.6689 -34.4894 -34.4884 -23.0593 -23.0519 -23.0208 -22.8996
   -22.8418 -22.8144  -9.1743  -8.8962  -8.7762  -8.0940  -8.0395  -7.9525
     2.7940   2.9058   2.9544   3.1875   4.1426   4.4431   4.7749   5.0347
     5.4161   5.5696   6.0257   6.1571   6.3213   6.3453   6.6433   6.6483
     6.8620   7.2284

     occupation numbers 
     1.0000   1.0000   1.0000   1.0000   1.0000   1.0000   1.0000   1.0000
     1.0000   1.0000   1.0000   1.0000   1.0000   1.0000   1.0000   1.0000
     1.0000   1.0000   1.0000   1.0000   1.0000   1.0000   1.0000   1.0000
     1.0000   1.0000   1.0000   1.0000   1.0000   1.0000   1.0000   1.0000
     1.0000   1.0000

          k = 0.0000 0.0000 0.3929 (  5581 PWs)   bands (ev):

   -46.6754 -46.6672 -34.4896 -34.4880 -23.0193 -23.0193 -22.9375 -22.9375
   -22.9369 -22.8329  -9.2306  -8.6452  -8.6452  -8.4287  -8.0521  -8.0521
     3.2030   3.2030   3.4535   3.8375   3.8375   4.4399   4.4399   4.4497
     4.4753   5.4161   5.4161   5.7499   6.4314   6.8350   6.8650   6.8650
     7.2717   7.2717

     occupation numbers 
     1.0000   1.0000   1.0000   1.0000   1.0000   1.0000   1.0000   1.0000
     1.0000   1.0000   1.0000   1.0000   1.0000   1.0000   1.0000   1.0000
     1.0000   1.0000   1.0000   1.0000   1.0000   1.0000   1.0000   1.0000
     1.0000   1.0000   1.0000   1.0000   1.0000   1.0000   1.0000   1.0000
     1.0000   1.0000

          k =-0.0000 1.0492 0.0655 (  5558 PWs)   bands (ev):

   -46.6736 -46.6689 -34.4893 -34.4884 -23.0451 -22.9835 -22.9747 -22.9484
   -22.9006 -22.8338  -9.1287  -8.6579  -8.5642  -8.4136  -8.3109  -7.9764
     3.0041   3.3716   3.5941   3.8692   3.9103   4.1615   4.3945   4.7122
     4.8367   4.8521   5.4791   5.9918   6.4224   6.4873   6.8761   7.0409
     7.0840   7.1367

     occupation numbers 
     1.0000   1.0000   1.0000   1.0000   1.0000   1.0000   1.0000   1.0000
     1.0000   1.0000   1.0000   1.0000   1.0000   1.0000   1.0000   1.0000
     1.0000   1.0000   1.0000   1.0000   1.0000   1.0000   1.0000   1.0000
     1.0000   1.0000   1.0000   1.0000   1.0000   1.0000   1.0000   1.0000
     1.0000   1.0000

          k =-0.0000 0.8393 0.1310 (  5556 PWs)   bands (ev):

   -46.6713 -46.6712 -34.4889 -34.4889 -23.0611 -23.0281 -22.9883 -22.9309
   -22.8520 -22.8279  -9.0365  -8.9393  -8.5922  -8.2885  -8.1680  -7.9673
     2.7569   3.1618   3.2615   3.7196   4.0066   4.0426   4.7399   4.8655
     5.2623   5.3504   5.8710   5.8868   6.1651   6.4892   6.7239   6.7592
     6.9267   7.2147

     occupation numbers 
     1.0000   1.0000   1.0000   1.0000   1.0000   1.0000   1.0000   1.0000
     1.0000   1.0000   1.0000   1.0000   1.0000   1.0000   1.0000   1.0000
     1.0000   1.0000   1.0000   1.0000   1.0000   1.0000   1.0000   1.0000
     1.0000   1.0000   1.0000   1.0000   1.0000   1.0000   1.0000   1.0000
     1.0000   1.0000

          k = 0.9086 0.5246-0.2620 (  5560 PWs)   bands (ev):

   -46.6726 -46.6699 -34.4891 -34.4886 -23.0249 -23.0152 -22.9896 -22.9328
   -22.8733 -22.8504  -9.0294  -8.8196  -8.5970  -8.2585  -8.2331  -8.1188
     3.2845   3.3004   3.4032   3.8863   4.0044   4.0993   4.2868   4.5816
     4.9562   5.1678   5.5065   5.6389   6.4921   6.5791   6.7773   6.9373
     6.9797   7.2090

     occupation numbers 
     1.0000   1.0000   1.0000   1.0000   1.0000   1.0000   1.0000   1.0000
     1.0000   1.0000   1.0000   1.0000   1.0000   1.0000   1.0000   1.0000
     1.0000   1.0000   1.0000   1.0000   1.0000   1.0000   1.0000   1.0000
     1.0000   1.0000   1.0000   1.0000   1.0000   1.0000   1.0000   1.0000
     1.0000   1.0000

          k = 0.9086 0.3148-0.1965 (  5556 PWs)   bands (ev):

   -46.6713 -46.6713 -34.4889 -34.4889 -23.0486 -23.0486 -22.9569 -22.9569
   -22.8382 -22.8382  -9.0021  -9.0021  -8.4635  -8.4635  -8.0339  -8.0339
     2.9459   2.9459   3.4507   3.4507   4.3138   4.3138   4.5442   4.5442
     5.2980   5.2980   5.8756   5.8756   6.3300   6.3300   6.7151   6.7151
     7.0843   7.0843

     occupation numbers 
     1.0000   1.0000   1.0000   1.0000   1.0000   1.0000   1.0000   1.0000
     1.0000   1.0000   1.0000   1.0000   1.0000   1.0000   1.0000   1.0000
     1.0000   1.0000   1.0000   1.0000   1.0000   1.0000   1.0000   1.0000
     1.0000   1.0000   1.0000   1.0000   1.0000   1.0000   1.0000   1.0000
     1.0000   1.0000

          k =-0.0000 0.0000-0.5894 (  5560 PWs)   bands (ev):

   -46.6713 -46.6713 -34.4888 -34.4888 -22.9788 -22.9788 -22.9788 -22.9788
   -22.8857 -22.8857  -8.8408  -8.8408  -8.3571  -8.3571  -8.3571  -8.3571
     3.7518   3.7518   3.7518   3.7518   3.9371   3.9371   4.6065   4.6065
     4.6065   4.6065   5.0451   5.0451   6.6828   6.6828   7.0715   7.0715
     7.0715   7.0715

     occupation numbers 
     1.0000   1.0000   1.0000   1.0000   1.0000   1.0000   1.0000   1.0000
     1.0000   1.0000   1.0000   1.0000   1.0000   1.0000   1.0000   1.0000
     1.0000   1.0000   1.0000   1.0000   1.0000   1.0000   1.0000   1.0000
     1.0000   1.0000   1.0000   1.0000   1.0000   1.0000   1.0000   1.0000
     1.0000   1.0000

     highest occupied level (ev):     7.3644

!    total energy              =    -936.83685699 Ry
     estimated scf accuracy    <          1.7E-13 Ry

     The total energy is the sum of the following terms:
     one-electron contribution =    -138.94185178 Ry
     hartree contribution      =     104.48240945 Ry
     xc contribution           =    -108.32982155 Ry
     ewald contribution        =    -330.59192584 Ry
     one-center paw contrib.   =    -463.45566727 Ry
      -> PAW hartree energy AE =     294.65540595 Ry
      -> PAW hartree energy PS =    -293.13119667 Ry
      -> PAW xc energy AE      =    -560.85594396 Ry
      -> PAW xc energy PS      =      95.87606741 Ry
      -> total E_H with PAW    =     106.00661873 Ry
      -> total E_XC with PAW   =    -573.30969810 Ry

     convergence has been achieved in  25 iterations

     Forces acting on atoms (cartesian axes, Ry/au):

     atom    1 type  1   force =    -0.00000000   -0.00000000    0.00188666
     atom    2 type  1   force =    -0.00000000   -0.00000000    0.00188666
     atom    3 type  2   force =    -0.00421816    0.00365766   -0.00050284
     atom    4 type  2   force =    -0.00105854   -0.00548187   -0.00050284
     atom    5 type  2   force =     0.00527671    0.00182421   -0.00050284
     atom    6 type  2   force =     0.00105854   -0.00548187   -0.00050284
     atom    7 type  2   force =     0.00421816    0.00365766   -0.00050284
     atom    8 type  2   force =    -0.00527671    0.00182421   -0.00050284
     atom    9 type  3   force =    -0.00000000   -0.00000000   -0.00037813
     atom   10 type  3   force =    -0.00000000    0.00000000   -0.00037813
     The non-local contrib.  to forces
     atom    1 type  1   force =    -0.00000000    0.00000000    0.01727032
     atom    2 type  1   force =    -0.00000000    0.00000000    0.01727032
     atom    3 type  2   force =     0.32544600   -0.15196912   -0.05372609
     atom    4 type  2   force =    -0.03111388    0.35782906   -0.05372609
     atom    5 type  2   force =    -0.29433212   -0.20585994   -0.05372609
     atom    6 type  2   force =     0.03111388    0.35782906   -0.05372609
     atom    7 type  2   force =    -0.32544600   -0.15196912   -0.05372609
     atom    8 type  2   force =     0.29433212   -0.20585994   -0.05372609
     atom    9 type  3   force =     0.00000000    0.00000000   -0.01410591
     atom   10 type  3   force =    -0.00000000   -0.00000000   -0.01410591
     The ionic contribution  to forces
     atom    1 type  1   force =    -0.00000000   -0.00000000   -0.97712836
     atom    2 type  1   force =    -0.00000000   -0.00000000   -0.97712836
     atom    3 type  2   force =    -3.75104790    2.64245893    0.47662045
     atom    4 type  2   force =    -0.41291261   -4.56973224    0.47662045
     atom    5 type  2   force =     4.16396051    1.92727331    0.47662045
     atom    6 type  2   force =     0.41291261   -4.56973224    0.47662045
     atom    7 type  2   force =     3.75104790    2.64245893    0.47662045
     atom    8 type  2   force =    -4.16396051    1.92727331    0.47662045
     atom    9 type  3   force =     0.00000000   -0.00000000   -0.45273299
     atom   10 type  3   force =     0.00000000    0.00000000   -0.45273299
     The local contribution  to forces
     atom    1 type  1   force =     0.00000000   -0.00000000    0.96174480
     atom    2 type  1   force =    -0.00000000    0.00000000    0.96174480
     atom    3 type  2   force =     3.42258403   -2.48808946   -0.42331783
     atom    4 type  2   force =     0.44345666    4.20808944   -0.42331783
     atom    5 type  2   force =    -3.86604069   -1.71999999   -0.42331783
     atom    6 type  2   force =    -0.44345667    4.20808944   -0.42331783
     atom    7 type  2   force =    -3.42258402   -2.48808945   -0.42331783
     atom    8 type  2   force =     3.86604069   -1.71999998   -0.42331783
     atom    9 type  3   force =     0.00000000    0.00000000    0.47210862
     atom   10 type  3   force =     0.00000000    0.00000000    0.47210862
     The core correction contribution to forces
     atom    1 type  1   force =     0.00000000    0.00000000    0.00000000
     atom    2 type  1   force =     0.00000000    0.00000000    0.00000000
     atom    3 type  2   force =    -0.00120047    0.00125739   -0.00007926
     atom    4 type  2   force =    -0.00048870   -0.00166833   -0.00007926
     atom    5 type  2   force =     0.00168917    0.00041094   -0.00007926
     atom    6 type  2   force =     0.00048870   -0.00166833   -0.00007926
     atom    7 type  2   force =     0.00120047    0.00125739   -0.00007926
     atom    8 type  2   force =    -0.00168917    0.00041094   -0.00007926
     atom    9 type  3   force =     0.00000000    0.00000000   -0.00564774
     atom   10 type  3   force =     0.00000000   -0.00000000   -0.00564774
     The Hubbard contrib.    to forces
     atom    1 type  1   force =     0.00000000    0.00000000    0.00000000
     atom    2 type  1   force =     0.00000000    0.00000000    0.00000000
     atom    3 type  2   force =     0.00000000    0.00000000    0.00000000
     atom    4 type  2   force =     0.00000000    0.00000000    0.00000000
     atom    5 type  2   force =     0.00000000    0.00000000    0.00000000
     atom    6 type  2   force =     0.00000000    0.00000000    0.00000000
     atom    7 type  2   force =     0.00000000    0.00000000    0.00000000
     atom    8 type  2   force =     0.00000000    0.00000000    0.00000000
     atom    9 type  3   force =     0.00000000    0.00000000    0.00000000
     atom   10 type  3   force =     0.00000000    0.00000000    0.00000000
     The SCF correction term to forces
     atom    1 type  1   force =     0.00000000    0.00000000    0.00000001
     atom    2 type  1   force =     0.00000000    0.00000000    0.00000001
     atom    3 type  2   force =     0.00000019   -0.00000009   -0.00000001
     atom    4 type  2   force =    -0.00000002    0.00000021   -0.00000001
     atom    5 type  2   force =    -0.00000017   -0.00000012   -0.00000001
     atom    6 type  2   force =     0.00000002    0.00000021   -0.00000001
     atom    7 type  2   force =    -0.00000019   -0.00000009   -0.00000001
     atom    8 type  2   force =     0.00000017   -0.00000012   -0.00000001
     atom    9 type  3   force =    -0.00000000    0.00000000    0.00000000
     atom   10 type  3   force =    -0.00000000    0.00000000    0.00000000

     Total force =     0.013998     Total SCF correction =     0.000001


     Computing stress (Cartesian axis) and pressure

          total   stress  (Ry/bohr**3)                   (kbar)     P=       11.10
   0.00019638  -0.00000000  -0.00000000           28.89       -0.00       -0.00
   0.00000000   0.00019638   0.00000000            0.00       28.89        0.00
   0.00000000   0.00000000  -0.00016642            0.00        0.00      -24.48

     kinetic stress (kbar)  26819.10     -0.00      0.00
                               -0.00  26819.10      0.00
                                0.00      0.00  26726.08

     local   stress (kbar) -12673.02     -0.00      0.00
                               -0.00 -12673.02      0.00
                                0.00      0.00 -11637.33

     nonloc. stress (kbar)   6981.09     -0.00     -0.00
                               -0.00   6981.09      0.00
                               -0.00      0.00   7016.63

     hartree stress (kbar)   7295.25      0.00      0.00
                                0.00   7295.25      0.00
                                0.00      0.00   7108.70

     exc-cor stress (kbar)   1078.62      0.00     -0.00
                                0.00   1078.62     -0.00
                               -0.00     -0.00   1076.32

     corecor stress (kbar)  -6866.80     -0.00      0.00
                               -0.00  -6866.80      0.00
                                0.00      0.00  -6867.32

     ewald   stress (kbar) -22605.35      0.00     -0.00
                                0.00 -22605.35     -0.00
                               -0.00     -0.00 -23447.57

     hubbard stress (kbar)      0.00      0.00      0.00
                                0.00      0.00      0.00
                                0.00      0.00      0.00

     DFT-D   stress (kbar)      0.00      0.00      0.00
                                0.00      0.00      0.00
                                0.00      0.00      0.00

     XDM     stress (kbar)      0.00      0.00      0.00
                                0.00      0.00      0.00
                                0.00      0.00      0.00

     dft-nl  stress (kbar)      0.00      0.00      0.00
                                0.00      0.00      0.00
                                0.00      0.00      0.00

     TS-vdW  stress (kbar)      0.00      0.00      0.00
                                0.00      0.00      0.00
                                0.00      0.00      0.00

     MDB     stress (kbar)      0.00      0.00      0.00
                                0.00      0.00      0.00
                                0.00      0.00      0.00

     3D-RISM stress (kbar)      0.00      0.00      0.00
                                0.00      0.00      0.00
                                0.00      0.00      0.00

     Message from routine punch:
     Nothing written, as per user request (disk_io='none')
 
     init_run     :      0.56s CPU      1.09s WALL (       1 calls)
     electrons    :     17.02s CPU     17.41s WALL (       1 calls)
     forces       :      0.07s CPU      0.08s WALL (       1 calls)
     stress       :      0.15s CPU      0.17s WALL (       1 calls)

     Called by init_run:
     wfcinit      :      0.18s CPU      0.48s WALL (       1 calls)
     wfcinit:atom :      0.02s CPU      0.03s WALL (      32 calls)
     wfcinit:wfcr :      0.12s CPU      0.34s WALL (      32 calls)
     potinit      :      0.10s CPU      0.13s WALL (       1 calls)
     hinit0       :      0.20s CPU      0.25s WALL (       1 calls)

     Called by electrons:
     c_bands      :     13.05s CPU     13.31s WALL (      25 calls)
     sum_band     :      1.66s CPU      1.71s WALL (      25 calls)
     v_of_rho     :      0.10s CPU      0.11s WALL (      26 calls)
     v_h          :      0.04s CPU      0.05s WALL (      26 calls)
     v_xc         :      0.06s CPU      0.07s WALL (      28 calls)
     newd         :      0.24s CPU      0.35s WALL (      26 calls)
     PAW_pot      :      1.84s CPU      1.88s WALL (      26 calls)
     mix_rho      :      0.16s CPU      0.16s WALL (      25 calls)

     Called by c_bands:
     init_us_2    :      0.53s CPU      0.54s WALL (    1696 calls)
     cegterg      :     11.98s CPU     12.22s WALL (     800 calls)

     Called by sum_band:
     sum_band:wei :      0.00s CPU      0.00s WALL (      25 calls)
     sum_band:loo :      1.28s CPU      1.31s WALL (      25 calls)
     sum_band:buf :      0.20s CPU      0.22s WALL (     800 calls)
     sum_band:ini :      0.25s CPU      0.25s WALL (     800 calls)
     sum_band:cal :      0.01s CPU      0.01s WALL (     800 calls)
     sum_band:bec :      0.29s CPU      0.30s WALL (     800 calls)
     addusdens    :      0.26s CPU      0.26s WALL (      25 calls)
                                        0.26s GPU  (      25 calls)
     addusd:skk   :      0.01s CPU      0.01s WALL (      75 calls)
                                        0.01s GPU  (      75 calls)

     Called by *egterg:
     cdiaghg      :      5.25s CPU      5.47s WALL (    4607 calls)
                                        5.43s GPU  (    4607 calls)
     cegterg:over :      0.36s CPU      0.37s WALL (    3807 calls)
     cegterg:upda :      1.12s CPU      1.13s WALL (    3807 calls)
     cegterg:last :      0.15s CPU      0.15s WALL (    2527 calls)
     h_psi        :      3.37s CPU      3.64s WALL (    4639 calls)
     s_psi        :      1.16s CPU      1.18s WALL (    4639 calls)
     g_psi        :      0.07s CPU      0.07s WALL (    3807 calls)

     Called by h_psi:
     h_psi:calbec :      0.09s CPU      0.14s WALL (    4639 calls)
     vloc_psi     :      2.17s CPU      2.41s WALL (    4639 calls)
                                        2.37s GPU  (    4639 calls)
     add_vuspsi   :      0.98s CPU      1.00s WALL (    4639 calls)

     General routines
     calbec       :      0.10s CPU      0.16s WALL (    5983 calls)
     fft          :      0.03s CPU      0.09s WALL (     361 calls)
                                        0.05s GPU  (     335 calls)
     ffts         :      0.01s CPU      0.02s WALL (      51 calls)
                                        0.00s GPU  (      25 calls)
     fftw         :      0.15s CPU      1.48s WALL (   20638 calls)
                                        1.28s GPU  (   20638 calls)
     interpolate  :      0.06s CPU      0.08s WALL (      26 calls)
 
     Parallel routines

     PAW routines
     PAW_pot      :      1.84s CPU      1.88s WALL (      26 calls)
     PAW_symme    :      0.00s CPU      0.00s WALL (      51 calls)
 
     PWSCF        :     18.15s CPU     19.13s WALL

 
   This run was terminated on:  17: 6: 0  29Nov2025            

=------------------------------------------------------------------------------=
   JOB DONE.
=------------------------------------------------------------------------------=
