
     Program PWSCF v.7.5 starts on 29Nov2025 at 17: 6: 4 

     This program is part of the open-source Quantum ESPRESSO suite
     for quantum simulation of materials; please cite
         "P. Giannozzi et al., J. Phys.:Condens. Matter 21 395502 (2009);
         "P. Giannozzi et al., J. Phys.:Condens. Matter 29 465901 (2017);
         "P. Giannozzi et al., J. Chem. Phys. 152 154105 (2020);
          URL http://www.quantum-espresso.org", 
     in publications or presentations arising from this work. More details at
     http://www.quantum-espresso.org/quote

     Parallel version (MPI & OpenMP), running on       1 processor cores
     Number of MPI processes:                 1
     Threads/MPI process:                     1

     MPI processes distributed on     1 nodes
     1674990 MiB available memory on the printing compute node when the environment starts
 
     Reading input from espresso.pwi
Warning: card &CELL ignored
Warning: card &FCP ignored
Warning: card &RISM ignored

     Current dimensions of program PWSCF are:
     Max number of different atomic species (ntypx) = 10
     Max number of k-points (npk) =  40000
     Max angular momentum in pseudopotentials (lmaxx) =  4
     file O.pbesol-n-kjpaw_psl.0.1.UPF: wavefunction(s)  2P renormalized
     file Nb.pbesol-spn-kjpaw_psl.0.3.0.UPF: wavefunction(s)  4S 4P renormalized
     Message from routine setup:
     using ibrav=0 with symmetry is DISCOURAGED, use correct ibrav instead
 
     Subspace diagonalization in iterative solution of the eigenvalue problem:
     a serial algorithm will be used

 
     G-vector sticks info
     --------------------
     sticks:   dense  smooth     PW     G-vecs:    dense   smooth      PW
     Sum        2855    1713    497                98605    45835    7217
 
     Using Slab Decomposition
 


     bravais-lattice index     =            0
     lattice parameter (alat)  =      10.3367  a.u.
     unit-cell volume          =     729.7801 (a.u.)^3
     number of atoms/cell      =           10
     number of atomic types    =            3
     number of electrons       =        68.00
     number of Kohn-Sham states=           34
     kinetic-energy cutoff     =      60.0000  Ry
     charge density cutoff     =     400.0000  Ry
     scf convergence threshold =      1.0E-12
     mixing beta               =       0.7000
     number of iterations used =            8  plain     mixing
     Exchange-correlation= SLA  PW   PSX  PSC
                           (   1   4  10   8   0   0   0)

     GPU acceleration is ACTIVE.  1 visible GPUs per MPI rank


     GPU used by master process:

        Device Number: 0
        Device name: NVIDIA B200
        Compute capability : 100
        Ratio of single to double precision performance  : 16
        Memory Clock Rate (KHz): 3996000
        Memory Bus Width (bits): 7680
        Peak Memory Bandwidth (GB/s): ******

     celldm(1)=  10.336661  celldm(2)=   0.000000  celldm(3)=   0.000000
     celldm(4)=   0.000000  celldm(5)=   0.000000  celldm(6)=   0.000000

     crystal axes: (cart. coord. in units of alat)
               a(1) = (   0.478354   0.276178   0.833609 )  
               a(2) = (  -0.478354   0.276178   0.833609 )  
               a(3) = (   0.000000  -0.552355   0.833609 )  

     reciprocal axes: (cart. coord. in units 2 pi/alat)
               b(1) = (  1.045252  0.603476  0.399868 )  
               b(2) = ( -1.045252  0.603476  0.399868 )  
               b(3) = ( -0.000000 -1.206953  0.399868 )  


     PseudoPot. # 1 for Li read from file:
     /home/qhossain/SSSP_1.3.0_PBEsol_efficiency/li_pbesol_v1.4.uspp.F.UPF
     MD5 check sum: aa28d9aeea6a965f2dc95ee9517b3536
     Pseudo is Ultrasoft, Zval =  3.0
     Generated by new atomic code, or converted to UPF format
     Using radial grid of  751 points,  5 beta functions with: 
                l(1) =   0
                l(2) =   0
                l(3) =   0
                l(4) =   1
                l(5) =   1
     Q(r) pseudized with 10 coefficients,  rinner =    1.150   1.150   1.150


     PseudoPot. # 2 for O  read from file:
     /home/qhossain/SSSP_1.3.0_PBEsol_efficiency/O.pbesol-n-kjpaw_psl.0.1.UPF
     MD5 check sum: 81d73d1479e654e5638b0319f0d6c2c7
     Pseudo is Projector augmented-wave + core cor, Zval =  6.0
     Generated using "atomic" code by A. Dal Corso  v.6.0 svn rev. 13079
     Shape of augmentation charge: BESSEL
     Using radial grid of 1095 points,  4 beta functions with: 
                l(1) =   0
                l(2) =   0
                l(3) =   1
                l(4) =   1
     Q(r) pseudized with 0 coefficients 


     PseudoPot. # 3 for Nb read from file:
     /home/qhossain/SSSP_1.3.0_PBEsol_efficiency/Nb.pbesol-spn-kjpaw_psl.0.3.0.UPF
     MD5 check sum: 3501bca1474143575298708b2d32ca28
     Pseudo is Projector augmented-wave + core cor, Zval = 13.0
     Generated using "atomic" code by A. Dal Corso  v.6.0 svn rev. 13079
     Shape of augmentation charge: PSQ
     Using radial grid of 1227 points,  6 beta functions with: 
                l(1) =   0
                l(2) =   0
                l(3) =   1
                l(4) =   1
                l(5) =   2
                l(6) =   2
     Q(r) pseudized with 0 coefficients 


     atomic species   valence    mass     pseudopotential
     Li                3.00     6.94000     Li( 1.00)
     O                 6.00    15.99900     O ( 1.00)
     Nb               13.00    92.90637     Nb( 1.00)

      6 Sym. Ops. (no inversion) found ( 3 have fractional translation)


                                    s                        frac. trans.

      isym =  1     identity                                     

 cryst.   s( 1) = (     1          0          0      )
                  (     0          1          0      )
                  (     0          0          1      )

 cart.    s( 1) = (  1.0000000  0.0000000 -0.0000000 )
                  ( -0.0000000  1.0000000 -0.0000000 )
                  (  0.0000000 -0.0000000  1.0000000 )


      isym =  2     120 deg rotation - cryst. axis [0,0,1]       

 cryst.   s( 2) = (     0          1          0      )
                  (     0          0          1      )
                  (     1          0          0      )

 cart.    s( 2) = ( -0.5000000 -0.8660254 -0.0000000 )
                  (  0.8660254 -0.5000000 -0.0000000 )
                  (  0.0000000  0.0000000  1.0000000 )


      isym =  3     120 deg rotation - cryst. axis [0,0,-1]      

 cryst.   s( 3) = (     0          0          1      )
                  (     1          0          0      )
                  (     0          1          0      )

 cart.    s( 3) = ( -0.5000000  0.8660254  0.0000000 )
                  ( -0.8660254 -0.5000000 -0.0000000 )
                  ( -0.0000000 -0.0000000  1.0000000 )


      isym =  4     inv. 180 deg rotation - cart. axis [1,0,0]   

 cryst.   s( 4) = (     0          1          0      )    f =( -0.5000000 )
                  (     1          0          0      )       ( -0.5000000 )
                  (     0          0          1      )       ( -0.5000000 )

 cart.    s( 4) = ( -1.0000000  0.0000000 -0.0000000 )    f =(  0.0000000 )
                  (  0.0000000  1.0000000 -0.0000000 )       (  0.0000000 )
                  ( -0.0000000 -0.0000000  1.0000000 )       ( -1.2504133 )


      isym =  5     inv. 180 deg rotation - cryst. axis [0,1,0]  

 cryst.   s( 5) = (     1          0          0      )    f =( -0.5000000 )
                  (     0          0          1      )       ( -0.5000000 )
                  (     0          1          0      )       ( -0.5000000 )

 cart.    s( 5) = (  0.5000000  0.8660254  0.0000000 )    f =(  0.0000000 )
                  (  0.8660254 -0.5000000 -0.0000000 )       ( -0.0000000 )
                  (  0.0000000 -0.0000000  1.0000000 )       ( -1.2504133 )


      isym =  6     inv. 180 deg rotation - cryst. axis [1,1,0]  

 cryst.   s( 6) = (     0          0          1      )    f =( -0.5000000 )
                  (     0          1          0      )       ( -0.5000000 )
                  (     1          0          0      )       ( -0.5000000 )

 cart.    s( 6) = (  0.5000000 -0.8660254 -0.0000000 )    f =( -0.0000000 )
                  ( -0.8660254 -0.5000000 -0.0000000 )       ( -0.0000000 )
                  ( -0.0000000  0.0000000  1.0000000 )       ( -1.2504133 )


   Cartesian axes

     site n.     atom                  positions (alat units)
         1        Li     tau(   1) = (  -0.0000000  -0.0000000   1.9592199  )
         2        Li     tau(   2) = (  -0.0000000  -0.0000000   0.7088066  )
         3        O      tau(   3) = (  -0.3066156  -0.0391053   1.4157280  )
         4        O      tau(   4) = (   0.1871740  -0.2459842   1.4157280  )
         5        O      tau(   5) = (   0.1194416   0.2850896   1.4157280  )
         6        O      tau(   6) = (   0.2911796   0.0301934   0.9989235  )
         7        O      tau(   7) = (  -0.1717381   0.2370723   0.9989235  )
         8        O      tau(   8) = (  -0.1194416  -0.2672656   0.9989235  )
         9        Nb     tau(   9) = (   0.0000000  -0.0000000   1.2531045  )
        10        Nb     tau(  10) = (  -0.0000000  -0.0000000   0.0026912  )

   Crystallographic axes

     site n.     atom                  positions (cryst. coord.)
         1        Li     tau(   1) = (  0.7834289  0.7834289  0.7834289  )
         2        Li     tau(   2) = (  0.2834289  0.2834289  0.2834289  )
         3        O      tau(   3) = (  0.2220144  0.8629954  0.6133023  )
         4        O      tau(   4) = (  0.6133023  0.2220144  0.8629954  )
         5        O      tau(   5) = (  0.8629954  0.6133023  0.2220144  )
         6        O      tau(   6) = (  0.7220144  0.1133023  0.3629954  )
         7        O      tau(   7) = (  0.3629954  0.7220144  0.1133023  )
         8        O      tau(   8) = (  0.1133023  0.3629954  0.7220144  )
         9        Nb     tau(   9) = (  0.5010761  0.5010761  0.5010761  )
        10        Nb     tau(  10) = (  0.0010761  0.0010761  0.0010761  )

     number of k points=    32
                       cart. coord. in units 2pi/alat
        k(    1) = (   0.0000000   0.0000000   0.0000000), wk =   0.0092593
        k(    2) = (  -0.0000000  -0.2011588   0.0666446), wk =   0.0555556
        k(    3) = (  -0.0000000  -0.4023176   0.1332893), wk =   0.0555556
        k(    4) = (   0.0000000   0.6034764  -0.1999339), wk =   0.0277778
        k(    5) = (  -0.1742086  -0.1005794   0.1332893), wk =   0.0555556
        k(    6) = (  -0.1742086  -0.3017382   0.1999339), wk =   0.1111111
        k(    7) = (  -0.1742086   0.7040558  -0.1332893), wk =   0.1111111
        k(    8) = (  -0.1742086   0.5028970  -0.0666446), wk =   0.1111111
        k(    9) = (  -0.1742086   0.3017382   0.0000000), wk =   0.0555556
        k(   10) = (  -0.3484173  -0.2011588   0.2665785), wk =   0.0555556
        k(   11) = (  -0.3484173   0.8046352  -0.0666446), wk =   0.1111111
        k(   12) = (  -0.3484173   0.6034764   0.0000000), wk =   0.0555556
        k(   13) = (   0.5226259   0.3017382  -0.3998678), wk =   0.0277778
        k(   14) = (  -0.0000000   0.0000000   0.1999339), wk =   0.0185185
        k(   15) = (  -0.0000000  -0.2011588   0.2665785), wk =   0.0555556
        k(   16) = (   0.0000000   0.8046352  -0.0666446), wk =   0.0555556
        k(   17) = (   0.0000000   0.6034764   0.0000000), wk =   0.0555556
        k(   18) = (   0.0000000   0.4023176   0.0666446), wk =   0.0555556
        k(   19) = (  -0.1742086  -0.1005794   0.3332232), wk =   0.0555556
        k(   20) = (  -0.1742086   0.9052146   0.0000000), wk =   0.1111111
        k(   21) = (  -0.1742086   0.7040558   0.0666446), wk =   0.1111111
        k(   22) = (  -0.1742086   0.5028970   0.1332893), wk =   0.1111111
        k(   23) = (   0.6968345   0.4023176  -0.3332232), wk =   0.0555556
        k(   24) = (   0.6968345   0.2011588  -0.2665785), wk =   0.1111111
        k(   25) = (   0.6968345  -0.0000000  -0.1999339), wk =   0.0555556
        k(   26) = (   0.5226259   0.3017382  -0.1999339), wk =   0.0555556
        k(   27) = (  -0.0000000   0.0000000   0.3998678), wk =   0.0185185
        k(   28) = (   0.0000000   1.0057940   0.0666446), wk =   0.0555556
        k(   29) = (   0.0000000   0.8046352   0.1332893), wk =   0.0555556
        k(   30) = (   0.8710431   0.5028970  -0.2665785), wk =   0.0555556
        k(   31) = (   0.8710431   0.3017382  -0.1999339), wk =   0.0555556
        k(   32) = (   0.0000000   0.0000000  -0.5998017), wk =   0.0092593

                       cryst. coord.
        k(    1) = (   0.0000000   0.0000000   0.0000000), wk =   0.0092593
        k(    2) = (  -0.0000000  -0.0000000   0.1666667), wk =   0.0555556
        k(    3) = (  -0.0000000  -0.0000000   0.3333333), wk =   0.0555556
        k(    4) = (   0.0000000   0.0000000  -0.5000000), wk =   0.0277778
        k(    5) = (  -0.0000000   0.1666667   0.1666667), wk =   0.0555556
        k(    6) = (  -0.0000000   0.1666667   0.3333333), wk =   0.1111111
        k(    7) = (   0.0000000   0.1666667  -0.5000000), wk =   0.1111111
        k(    8) = (   0.0000000   0.1666667  -0.3333333), wk =   0.1111111
        k(    9) = (   0.0000000   0.1666667  -0.1666667), wk =   0.0555556
        k(   10) = (  -0.0000000   0.3333333   0.3333333), wk =   0.0555556
        k(   11) = (   0.0000000   0.3333333  -0.5000000), wk =   0.1111111
        k(   12) = (   0.0000000   0.3333333  -0.3333333), wk =   0.0555556
        k(   13) = (   0.0000000  -0.5000000  -0.5000000), wk =   0.0277778
        k(   14) = (   0.1666667   0.1666667   0.1666667), wk =   0.0185185
        k(   15) = (   0.1666667   0.1666667   0.3333333), wk =   0.0555556
        k(   16) = (   0.1666667   0.1666667  -0.5000000), wk =   0.0555556
        k(   17) = (   0.1666667   0.1666667  -0.3333333), wk =   0.0555556
        k(   18) = (   0.1666667   0.1666667  -0.1666667), wk =   0.0555556
        k(   19) = (   0.1666667   0.3333333   0.3333333), wk =   0.0555556
        k(   20) = (   0.1666667   0.3333333  -0.5000000), wk =   0.1111111
        k(   21) = (   0.1666667   0.3333333  -0.3333333), wk =   0.1111111
        k(   22) = (   0.1666667   0.3333333  -0.1666667), wk =   0.1111111
        k(   23) = (   0.1666667  -0.5000000  -0.5000000), wk =   0.0555556
        k(   24) = (   0.1666667  -0.5000000  -0.3333333), wk =   0.1111111
        k(   25) = (   0.1666667  -0.5000000  -0.1666667), wk =   0.0555556
        k(   26) = (   0.1666667  -0.3333333  -0.3333333), wk =   0.0555556
        k(   27) = (   0.3333333   0.3333333   0.3333333), wk =   0.0185185
        k(   28) = (   0.3333333   0.3333333  -0.5000000), wk =   0.0555556
        k(   29) = (   0.3333333   0.3333333  -0.3333333), wk =   0.0555556
        k(   30) = (   0.3333333  -0.5000000  -0.5000000), wk =   0.0555556
        k(   31) = (   0.3333333  -0.5000000  -0.3333333), wk =   0.0555556
        k(   32) = (  -0.5000000  -0.5000000  -0.5000000), wk =   0.0092593

     Dense  grid:    98605 G-vectors     FFT dimensions: (  72,  72,  72)

     Smooth grid:    45835 G-vectors     FFT dimensions: (  54,  54,  54)

     Dynamical RAM for                 wfc:       2.97 MB

     Dynamical RAM for     wfc (w. buffer):      98.07 MB

     Dynamical RAM for           str. fact:       4.51 MB

     Dynamical RAM for           local pot:       0.00 MB

     Dynamical RAM for          nlocal pot:       8.92 MB

     Dynamical RAM for                qrad:       4.82 MB

     Dynamical RAM for          rho,v,vnew:      13.06 MB

     Dynamical RAM for               rhoin:       4.35 MB

     Dynamical RAM for            rho*nmix:      24.07 MB

     Dynamical RAM for           G-vectors:       5.99 MB

     Dynamical RAM for          h,s,v(r/c):       0.21 MB

     Dynamical RAM for          <psi|beta>:       0.05 MB

     Dynamical RAM for                 psi:       5.94 MB

     Dynamical RAM for                hpsi:       5.94 MB

     Dynamical RAM for                spsi:       5.94 MB

     Dynamical RAM for      wfcinit/wfcrot:       5.97 MB

     Dynamical RAM for           addusdens:     288.88 MB

     Dynamical RAM for          addusforce:     304.70 MB

     Dynamical RAM for         addusstress:     302.42 MB

     Estimated static dynamical RAM per process >     159.97 MB

     Estimated max dynamical RAM per process >     488.74 MB

     Check: negative core charge=   -0.000005

     Initial potential from superposition of free atoms

     starting charge      67.0945, renormalised to      68.0000
     Starting wfcs are   54 randomized atomic wfcs
     Checking if some PAW data can be deallocated... 

     total cpu time spent up to now is        1.1 secs

     per-process dynamical memory:   562.1 Mb

     Self-consistent Calculation
[tb_dev] Currently allocated     1.86E+00 Mbytes, locked:    0 /   3
[tb_pin] Currently allocated     0.00E+00 Mbytes, locked:    0 /   0

     iteration #  1     ecut=    60.00 Ry     beta= 0.70
     Davidson diagonalization with overlap

---- Real-time Memory Report at c_bands before calling an iterative solver
           990 MiB given to the printing process from OS
           548 MiB allocation reported by mallinfo(arena+hblkhd)
       1674103 MiB available memory on the node where the printing process lives
     GPU memory used/free/total (MiB): 65382 / 117260 / 182642
------------------
     ethr =  1.00E-02,  avg # of iterations =  1.0

     total cpu time spent up to now is        1.6 secs

     total energy              =    -934.41183592 Ry
     estimated scf accuracy    <       4.50570625 Ry
[tb_dev] Currently allocated     0.00E+00 Mbytes, locked:    0 /   0
[tb_pin] Currently allocated     0.00E+00 Mbytes, locked:    0 /   0

     iteration #  2     ecut=    60.00 Ry     beta= 0.70
     Davidson diagonalization with overlap

---- Real-time Memory Report at c_bands before calling an iterative solver
          1038 MiB given to the printing process from OS
           625 MiB allocation reported by mallinfo(arena+hblkhd)
       1674072 MiB available memory on the node where the printing process lives
     GPU memory used/free/total (MiB): 65382 / 117260 / 182642
------------------
     ethr =  6.63E-03,  avg # of iterations =  8.6

     total cpu time spent up to now is        2.7 secs

     total energy              =    -933.56424795 Ry
     estimated scf accuracy    <      17.43041079 Ry
[tb_dev] Currently allocated     0.00E+00 Mbytes, locked:    0 /   0
[tb_pin] Currently allocated     0.00E+00 Mbytes, locked:    0 /   0

     iteration #  3     ecut=    60.00 Ry     beta= 0.70
     Davidson diagonalization with overlap

---- Real-time Memory Report at c_bands before calling an iterative solver
          1043 MiB given to the printing process from OS
           629 MiB allocation reported by mallinfo(arena+hblkhd)
       1674377 MiB available memory on the node where the printing process lives
     GPU memory used/free/total (MiB): 65384 / 117258 / 182642
------------------
     ethr =  6.63E-03,  avg # of iterations =  6.4

     total cpu time spent up to now is        3.6 secs

     total energy              =    -936.74580458 Ry
     estimated scf accuracy    <       0.06358465 Ry
[tb_dev] Currently allocated     0.00E+00 Mbytes, locked:    0 /   0
[tb_pin] Currently allocated     0.00E+00 Mbytes, locked:    0 /   0

     iteration #  4     ecut=    60.00 Ry     beta= 0.70
     Davidson diagonalization with overlap

---- Real-time Memory Report at c_bands before calling an iterative solver
          1050 MiB given to the printing process from OS
           631 MiB allocation reported by mallinfo(arena+hblkhd)
       1674377 MiB available memory on the node where the printing process lives
     GPU memory used/free/total (MiB): 65384 / 117258 / 182642
------------------
     ethr =  9.35E-05,  avg # of iterations =  7.3

     total cpu time spent up to now is        4.5 secs

     total energy              =    -936.69177012 Ry
     estimated scf accuracy    <       0.29463115 Ry
[tb_dev] Currently allocated     0.00E+00 Mbytes, locked:    0 /   0
[tb_pin] Currently allocated     0.00E+00 Mbytes, locked:    0 /   0

     iteration #  5     ecut=    60.00 Ry     beta= 0.70
     Davidson diagonalization with overlap

---- Real-time Memory Report at c_bands before calling an iterative solver
          1050 MiB given to the printing process from OS
           631 MiB allocation reported by mallinfo(arena+hblkhd)
       1674421 MiB available memory on the node where the printing process lives
     GPU memory used/free/total (MiB): 65384 / 117258 / 182642
------------------
     ethr =  9.35E-05,  avg # of iterations =  8.3

     total cpu time spent up to now is        5.6 secs

     total energy              =    -936.79183646 Ry
     estimated scf accuracy    <       0.58934822 Ry
[tb_dev] Currently allocated     0.00E+00 Mbytes, locked:    0 /   0
[tb_pin] Currently allocated     0.00E+00 Mbytes, locked:    0 /   0

     iteration #  6     ecut=    60.00 Ry     beta= 0.70
     Davidson diagonalization with overlap

---- Real-time Memory Report at c_bands before calling an iterative solver
          1055 MiB given to the printing process from OS
           634 MiB allocation reported by mallinfo(arena+hblkhd)
       1674448 MiB available memory on the node where the printing process lives
     GPU memory used/free/total (MiB): 65384 / 117258 / 182642
------------------
     ethr =  9.35E-05,  avg # of iterations =  6.1

     total cpu time spent up to now is        6.4 secs

     total energy              =    -936.81521390 Ry
     estimated scf accuracy    <       0.06506816 Ry
[tb_dev] Currently allocated     0.00E+00 Mbytes, locked:    0 /   0
[tb_pin] Currently allocated     0.00E+00 Mbytes, locked:    0 /   0

     iteration #  7     ecut=    60.00 Ry     beta= 0.70
     Davidson diagonalization with overlap

---- Real-time Memory Report at c_bands before calling an iterative solver
          1055 MiB given to the printing process from OS
           636 MiB allocation reported by mallinfo(arena+hblkhd)
       1674466 MiB available memory on the node where the printing process lives
     GPU memory used/free/total (MiB): 65384 / 117258 / 182642
------------------
     ethr =  9.35E-05,  avg # of iterations =  4.3

     total cpu time spent up to now is        7.1 secs

     total energy              =    -936.83178462 Ry
     estimated scf accuracy    <       0.00004168 Ry
[tb_dev] Currently allocated     0.00E+00 Mbytes, locked:    0 /   0
[tb_pin] Currently allocated     0.00E+00 Mbytes, locked:    0 /   0

     iteration #  8     ecut=    60.00 Ry     beta= 0.70
     Davidson diagonalization with overlap

---- Real-time Memory Report at c_bands before calling an iterative solver
          1057 MiB given to the printing process from OS
           637 MiB allocation reported by mallinfo(arena+hblkhd)
       1674422 MiB available memory on the node where the printing process lives
     GPU memory used/free/total (MiB): 65384 / 117258 / 182642
------------------
     c_bands:  3 eigenvalues not converged
     c_bands:  1 eigenvalues not converged
     c_bands:  4 eigenvalues not converged
     ethr =  6.13E-08,  avg # of iterations = 17.8

     total cpu time spent up to now is        9.1 secs

     total energy              =    -936.83397041 Ry
     estimated scf accuracy    <       0.00519441 Ry
[tb_dev] Currently allocated     0.00E+00 Mbytes, locked:    0 /   0
[tb_pin] Currently allocated     0.00E+00 Mbytes, locked:    0 /   0

     iteration #  9     ecut=    60.00 Ry     beta= 0.70
     Davidson diagonalization with overlap

---- Real-time Memory Report at c_bands before calling an iterative solver
          1058 MiB given to the printing process from OS
           639 MiB allocation reported by mallinfo(arena+hblkhd)
       1674437 MiB available memory on the node where the printing process lives
     GPU memory used/free/total (MiB): 65384 / 117258 / 182642
------------------
     ethr =  6.13E-08,  avg # of iterations =  6.2

     total cpu time spent up to now is       10.0 secs

     total energy              =    -936.83280049 Ry
     estimated scf accuracy    <       0.00304226 Ry
[tb_dev] Currently allocated     0.00E+00 Mbytes, locked:    0 /   0
[tb_pin] Currently allocated     0.00E+00 Mbytes, locked:    0 /   0

     iteration # 10     ecut=    60.00 Ry     beta= 0.70
     Davidson diagonalization with overlap

---- Real-time Memory Report at c_bands before calling an iterative solver
          1062 MiB given to the printing process from OS
           640 MiB allocation reported by mallinfo(arena+hblkhd)
       1674480 MiB available memory on the node where the printing process lives
     GPU memory used/free/total (MiB): 65384 / 117258 / 182642
------------------
     ethr =  6.13E-08,  avg # of iterations = 10.0

     total cpu time spent up to now is       11.2 secs

     total energy              =    -936.83339170 Ry
     estimated scf accuracy    <       0.00001462 Ry
[tb_dev] Currently allocated     0.00E+00 Mbytes, locked:    0 /   0
[tb_pin] Currently allocated     0.00E+00 Mbytes, locked:    0 /   0

     iteration # 11     ecut=    60.00 Ry     beta= 0.70
     Davidson diagonalization with overlap

---- Real-time Memory Report at c_bands before calling an iterative solver
          1062 MiB given to the printing process from OS
           640 MiB allocation reported by mallinfo(arena+hblkhd)
       1674551 MiB available memory on the node where the printing process lives
     GPU memory used/free/total (MiB): 65384 / 117258 / 182642
------------------
     ethr =  2.15E-08,  avg # of iterations =  2.0

     total cpu time spent up to now is       11.7 secs

     total energy              =    -936.83339023 Ry
     estimated scf accuracy    <       0.00000439 Ry
[tb_dev] Currently allocated     0.00E+00 Mbytes, locked:    0 /   0
[tb_pin] Currently allocated     0.00E+00 Mbytes, locked:    0 /   0

     iteration # 12     ecut=    60.00 Ry     beta= 0.70
     Davidson diagonalization with overlap

---- Real-time Memory Report at c_bands before calling an iterative solver
          1062 MiB given to the printing process from OS
           640 MiB allocation reported by mallinfo(arena+hblkhd)
       1674569 MiB available memory on the node where the printing process lives
     GPU memory used/free/total (MiB): 65384 / 117258 / 182642
------------------
     ethr =  6.46E-09,  avg # of iterations =  6.1

     total cpu time spent up to now is       12.5 secs

     total energy              =    -936.83339266 Ry
     estimated scf accuracy    <       0.00000291 Ry
[tb_dev] Currently allocated     0.00E+00 Mbytes, locked:    0 /   0
[tb_pin] Currently allocated     0.00E+00 Mbytes, locked:    0 /   0

     iteration # 13     ecut=    60.00 Ry     beta= 0.70
     Davidson diagonalization with overlap

---- Real-time Memory Report at c_bands before calling an iterative solver
          1062 MiB given to the printing process from OS
           640 MiB allocation reported by mallinfo(arena+hblkhd)
       1674560 MiB available memory on the node where the printing process lives
     GPU memory used/free/total (MiB): 65384 / 117258 / 182642
------------------
     ethr =  4.27E-09,  avg # of iterations =  1.5

     total cpu time spent up to now is       13.0 secs

     total energy              =    -936.83339254 Ry
     estimated scf accuracy    <       0.00000115 Ry
[tb_dev] Currently allocated     0.00E+00 Mbytes, locked:    0 /   0
[tb_pin] Currently allocated     0.00E+00 Mbytes, locked:    0 /   0

     iteration # 14     ecut=    60.00 Ry     beta= 0.70
     Davidson diagonalization with overlap

---- Real-time Memory Report at c_bands before calling an iterative solver
          1062 MiB given to the printing process from OS
           640 MiB allocation reported by mallinfo(arena+hblkhd)
       1674563 MiB available memory on the node where the printing process lives
     GPU memory used/free/total (MiB): 65384 / 117258 / 182642
------------------
     ethr =  1.69E-09,  avg # of iterations =  3.2

     total cpu time spent up to now is       13.5 secs

     total energy              =    -936.83339259 Ry
     estimated scf accuracy    <       0.00000044 Ry
[tb_dev] Currently allocated     0.00E+00 Mbytes, locked:    0 /   0
[tb_pin] Currently allocated     0.00E+00 Mbytes, locked:    0 /   0

     iteration # 15     ecut=    60.00 Ry     beta= 0.70
     Davidson diagonalization with overlap

---- Real-time Memory Report at c_bands before calling an iterative solver
          1062 MiB given to the printing process from OS
           640 MiB allocation reported by mallinfo(arena+hblkhd)
       1674587 MiB available memory on the node where the printing process lives
     GPU memory used/free/total (MiB): 65384 / 117258 / 182642
------------------
     ethr =  6.44E-10,  avg # of iterations =  5.0

     total cpu time spent up to now is       14.2 secs

     total energy              =    -936.83339269 Ry
     estimated scf accuracy    <       0.00000002 Ry
[tb_dev] Currently allocated     0.00E+00 Mbytes, locked:    0 /   0
[tb_pin] Currently allocated     0.00E+00 Mbytes, locked:    0 /   0

     iteration # 16     ecut=    60.00 Ry     beta= 0.70
     Davidson diagonalization with overlap

---- Real-time Memory Report at c_bands before calling an iterative solver
          1062 MiB given to the printing process from OS
           640 MiB allocation reported by mallinfo(arena+hblkhd)
       1674595 MiB available memory on the node where the printing process lives
     GPU memory used/free/total (MiB): 65384 / 117258 / 182642
------------------
     ethr =  2.60E-11,  avg # of iterations =  8.4

     total cpu time spent up to now is       15.3 secs

     total energy              =    -936.83339271 Ry
     estimated scf accuracy    <       0.00000018 Ry
[tb_dev] Currently allocated     0.00E+00 Mbytes, locked:    0 /   0
[tb_pin] Currently allocated     0.00E+00 Mbytes, locked:    0 /   0

     iteration # 17     ecut=    60.00 Ry     beta= 0.70
     Davidson diagonalization with overlap

---- Real-time Memory Report at c_bands before calling an iterative solver
          1062 MiB given to the printing process from OS
           640 MiB allocation reported by mallinfo(arena+hblkhd)
       1674602 MiB available memory on the node where the printing process lives
     GPU memory used/free/total (MiB): 65384 / 117258 / 182642
------------------
     ethr =  2.60E-11,  avg # of iterations =  6.1

     total cpu time spent up to now is       16.1 secs

     total energy              =    -936.83339271 Ry
     estimated scf accuracy    <       0.00000004 Ry
[tb_dev] Currently allocated     0.00E+00 Mbytes, locked:    0 /   0
[tb_pin] Currently allocated     0.00E+00 Mbytes, locked:    0 /   0

     iteration # 18     ecut=    60.00 Ry     beta= 0.70
     Davidson diagonalization with overlap

---- Real-time Memory Report at c_bands before calling an iterative solver
          1062 MiB given to the printing process from OS
           640 MiB allocation reported by mallinfo(arena+hblkhd)
       1674605 MiB available memory on the node where the printing process lives
     GPU memory used/free/total (MiB): 65384 / 117258 / 182642
------------------
     ethr =  2.60E-11,  avg # of iterations =  5.0

     total cpu time spent up to now is       16.8 secs

     total energy              =    -936.83339272 Ry
     estimated scf accuracy    <          2.5E-09 Ry
[tb_dev] Currently allocated     0.00E+00 Mbytes, locked:    0 /   0
[tb_pin] Currently allocated     0.00E+00 Mbytes, locked:    0 /   0

     iteration # 19     ecut=    60.00 Ry     beta= 0.70
     Davidson diagonalization with overlap

---- Real-time Memory Report at c_bands before calling an iterative solver
          1062 MiB given to the printing process from OS
           640 MiB allocation reported by mallinfo(arena+hblkhd)
       1674602 MiB available memory on the node where the printing process lives
     GPU memory used/free/total (MiB): 65384 / 117258 / 182642
------------------
     ethr =  3.66E-12,  avg # of iterations =  6.3

     total cpu time spent up to now is       17.7 secs

     total energy              =    -936.83339272 Ry
     estimated scf accuracy    <          5.1E-10 Ry
[tb_dev] Currently allocated     0.00E+00 Mbytes, locked:    0 /   0
[tb_pin] Currently allocated     0.00E+00 Mbytes, locked:    0 /   0

     iteration # 20     ecut=    60.00 Ry     beta= 0.70
     Davidson diagonalization with overlap

---- Real-time Memory Report at c_bands before calling an iterative solver
          1062 MiB given to the printing process from OS
           640 MiB allocation reported by mallinfo(arena+hblkhd)
       1674615 MiB available memory on the node where the printing process lives
     GPU memory used/free/total (MiB): 65384 / 117258 / 182642
------------------
     ethr =  7.43E-13,  avg # of iterations =  1.9

     total cpu time spent up to now is       18.1 secs

     total energy              =    -936.83339272 Ry
     estimated scf accuracy    <          2.1E-10 Ry
[tb_dev] Currently allocated     0.00E+00 Mbytes, locked:    0 /   0
[tb_pin] Currently allocated     0.00E+00 Mbytes, locked:    0 /   0

     iteration # 21     ecut=    60.00 Ry     beta= 0.70
     Davidson diagonalization with overlap

---- Real-time Memory Report at c_bands before calling an iterative solver
          1062 MiB given to the printing process from OS
           640 MiB allocation reported by mallinfo(arena+hblkhd)
       1674627 MiB available memory on the node where the printing process lives
     GPU memory used/free/total (MiB): 65384 / 117258 / 182642
------------------
     ethr =  3.04E-13,  avg # of iterations =  3.4

     total cpu time spent up to now is       18.7 secs

     total energy              =    -936.83339272 Ry
     estimated scf accuracy    <          8.9E-11 Ry
[tb_dev] Currently allocated     0.00E+00 Mbytes, locked:    0 /   0
[tb_pin] Currently allocated     0.00E+00 Mbytes, locked:    0 /   0

     iteration # 22     ecut=    60.00 Ry     beta= 0.70
     Davidson diagonalization with overlap

---- Real-time Memory Report at c_bands before calling an iterative solver
          1062 MiB given to the printing process from OS
           640 MiB allocation reported by mallinfo(arena+hblkhd)
       1674558 MiB available memory on the node where the printing process lives
     GPU memory used/free/total (MiB): 65384 / 117258 / 182642
------------------
     ethr =  1.31E-13,  avg # of iterations =  4.8

     total cpu time spent up to now is       19.4 secs

     total energy              =    -936.83339272 Ry
     estimated scf accuracy    <          3.9E-12 Ry
[tb_dev] Currently allocated     0.00E+00 Mbytes, locked:    0 /   0
[tb_pin] Currently allocated     0.00E+00 Mbytes, locked:    0 /   0

     iteration # 23     ecut=    60.00 Ry     beta= 0.70
     Davidson diagonalization with overlap

---- Real-time Memory Report at c_bands before calling an iterative solver
          1062 MiB given to the printing process from OS
           640 MiB allocation reported by mallinfo(arena+hblkhd)
       1674582 MiB available memory on the node where the printing process lives
     GPU memory used/free/total (MiB): 65384 / 117258 / 182642
------------------
     ethr =  1.00E-13,  avg # of iterations =  1.0

     total cpu time spent up to now is       19.8 secs

     total energy              =    -936.83339272 Ry
     estimated scf accuracy    <          4.6E-12 Ry
[tb_dev] Currently allocated     0.00E+00 Mbytes, locked:    0 /   0
[tb_pin] Currently allocated     0.00E+00 Mbytes, locked:    0 /   0

     iteration # 24     ecut=    60.00 Ry     beta= 0.70
     Davidson diagonalization with overlap

---- Real-time Memory Report at c_bands before calling an iterative solver
          1062 MiB given to the printing process from OS
           640 MiB allocation reported by mallinfo(arena+hblkhd)
       1674526 MiB available memory on the node where the printing process lives
     GPU memory used/free/total (MiB): 65384 / 117258 / 182642
------------------
     ethr =  1.00E-13,  avg # of iterations =  1.0

     total cpu time spent up to now is       20.2 secs

     total energy              =    -936.83339272 Ry
     estimated scf accuracy    <          1.4E-12 Ry
[tb_dev] Currently allocated     0.00E+00 Mbytes, locked:    0 /   0
[tb_pin] Currently allocated     0.00E+00 Mbytes, locked:    0 /   0

     iteration # 25     ecut=    60.00 Ry     beta= 0.70
     Davidson diagonalization with overlap

---- Real-time Memory Report at c_bands before calling an iterative solver
          1062 MiB given to the printing process from OS
           640 MiB allocation reported by mallinfo(arena+hblkhd)
       1674492 MiB available memory on the node where the printing process lives
     GPU memory used/free/total (MiB): 65384 / 117258 / 182642
------------------
     ethr =  1.00E-13,  avg # of iterations =  1.0

     total cpu time spent up to now is       20.6 secs

     End of self-consistent calculation

          k = 0.0000 0.0000 0.0000 (  5763 PWs)   bands (ev):

   -47.2175 -47.2033 -34.9543 -34.9517 -23.5215 -23.5215 -23.4614 -23.3681
   -23.3681 -23.2929  -9.8833  -9.2187  -9.2187  -8.2778  -8.1383  -8.1383
     2.5523   2.5523   2.7487   2.8003   2.8003   3.6788   4.8546   4.8546
     4.8854   5.6923   6.2405   6.2405   6.3461   6.3461   6.4387   6.5302
     6.9452   6.9452

     occupation numbers 
     1.0000   1.0000   1.0000   1.0000   1.0000   1.0000   1.0000   1.0000
     1.0000   1.0000   1.0000   1.0000   1.0000   1.0000   1.0000   1.0000
     1.0000   1.0000   1.0000   1.0000   1.0000   1.0000   1.0000   1.0000
     1.0000   1.0000   1.0000   1.0000   1.0000   1.0000   1.0000   1.0000
     1.0000   1.0000

          k =-0.0000-0.2012 0.0666 (  5716 PWs)   bands (ev):

   -47.2165 -47.2042 -34.9542 -34.9518 -23.5129 -23.5117 -23.4498 -23.3798
   -23.3788 -23.3041  -9.7772  -9.1604  -9.1557  -8.3579  -8.2424  -8.2217
     2.5060   2.5918   2.9015   3.0443   3.0600   3.7356   4.5451   4.6493
     4.6878   5.6745   5.9685   6.2141   6.2180   6.4862   6.5330   6.6269
     6.8243   6.8868

     occupation numbers 
     1.0000   1.0000   1.0000   1.0000   1.0000   1.0000   1.0000   1.0000
     1.0000   1.0000   1.0000   1.0000   1.0000   1.0000   1.0000   1.0000
     1.0000   1.0000   1.0000   1.0000   1.0000   1.0000   1.0000   1.0000
     1.0000   1.0000   1.0000   1.0000   1.0000   1.0000   1.0000   1.0000
     1.0000   1.0000

          k =-0.0000-0.4023 0.1333 (  5727 PWs)   bands (ev):

   -47.2139 -47.2068 -34.9537 -34.9524 -23.4880 -23.4846 -23.4187 -23.4109
   -23.4079 -23.3347  -9.4842  -9.0054  -8.9823  -8.6160  -8.4722  -8.4357
     2.6628   2.8055   3.1755   3.5490   3.5934   3.8505   3.8872   4.2742
     4.4552   5.2129   5.4579   5.7699   6.3946   6.5701   6.5719   6.6621
     6.7848   6.8996

     occupation numbers 
     1.0000   1.0000   1.0000   1.0000   1.0000   1.0000   1.0000   1.0000
     1.0000   1.0000   1.0000   1.0000   1.0000   1.0000   1.0000   1.0000
     1.0000   1.0000   1.0000   1.0000   1.0000   1.0000   1.0000   1.0000
     1.0000   1.0000   1.0000   1.0000   1.0000   1.0000   1.0000   1.0000
     1.0000   1.0000

          k = 0.0000 0.6035-0.1999 (  5738 PWs)   bands (ev):

   -47.2103 -47.2103 -34.9531 -34.9531 -23.4509 -23.4509 -23.4468 -23.4468
   -23.3765 -23.3765  -9.0883  -9.0883  -8.7605  -8.7605  -8.6691  -8.6691
     3.0181   3.0181   3.2753   3.2753   3.7671   3.7671   4.2332   4.2332
     4.6811   4.6811   5.0994   5.0994   6.6086   6.6086   6.6897   6.6897
     6.7785   6.7785

     occupation numbers 
     1.0000   1.0000   1.0000   1.0000   1.0000   1.0000   1.0000   1.0000
     1.0000   1.0000   1.0000   1.0000   1.0000   1.0000   1.0000   1.0000
     1.0000   1.0000   1.0000   1.0000   1.0000   1.0000   1.0000   1.0000
     1.0000   1.0000   1.0000   1.0000   1.0000   1.0000   1.0000   1.0000
     1.0000   1.0000

          k =-0.1742-0.1006 0.1333 (  5739 PWs)   bands (ev):

   -47.2162 -47.2045 -34.9541 -34.9519 -23.5241 -23.5037 -23.4391 -23.4026
   -23.3661 -23.3019  -9.7673  -9.1980  -9.0671  -8.4807  -8.2301  -8.1760
     2.5329   2.6078   2.7808   3.0935   3.1714   3.8865   4.1551   4.8354
     4.8713   5.6744   5.8885   6.1057   6.2673   6.3221   6.4369   6.6075
     6.8503   6.8943

     occupation numbers 
     1.0000   1.0000   1.0000   1.0000   1.0000   1.0000   1.0000   1.0000
     1.0000   1.0000   1.0000   1.0000   1.0000   1.0000   1.0000   1.0000
     1.0000   1.0000   1.0000   1.0000   1.0000   1.0000   1.0000   1.0000
     1.0000   1.0000   1.0000   1.0000   1.0000   1.0000   1.0000   1.0000
     1.0000   1.0000

          k =-0.1742-0.3017 0.1999 (  5724 PWs)   bands (ev):

   -47.2144 -47.2062 -34.9538 -34.9523 -23.5170 -23.4883 -23.4422 -23.4033
   -23.3762 -23.3155  -9.5927  -9.1204  -8.8846  -8.7330  -8.3347  -8.2971
     2.4870   2.7461   3.1031   3.3257   3.4832   3.6967   4.2185   4.4452
     4.8027   5.3643   5.6720   6.0203   6.1320   6.2872   6.4481   6.6482
     6.7424   6.8910

     occupation numbers 
     1.0000   1.0000   1.0000   1.0000   1.0000   1.0000   1.0000   1.0000
     1.0000   1.0000   1.0000   1.0000   1.0000   1.0000   1.0000   1.0000
     1.0000   1.0000   1.0000   1.0000   1.0000   1.0000   1.0000   1.0000
     1.0000   1.0000   1.0000   1.0000   1.0000   1.0000   1.0000   1.0000
     1.0000   1.0000

          k =-0.1742 0.7041-0.1333 (  5732 PWs)   bands (ev):

   -47.2115 -47.2091 -34.9533 -34.9528 -23.4918 -23.4815 -23.4584 -23.4061
   -23.3629 -23.3462  -9.2858  -9.0897  -8.9412  -8.5965  -8.5779  -8.5106
     2.6644   2.8706   3.1025   3.5492   3.7662   3.8315   4.0839   4.3572
     4.5607   4.9679   5.3779   5.7109   6.2190   6.4467   6.5011   6.5828
     6.7577   6.8538

     occupation numbers 
     1.0000   1.0000   1.0000   1.0000   1.0000   1.0000   1.0000   1.0000
     1.0000   1.0000   1.0000   1.0000   1.0000   1.0000   1.0000   1.0000
     1.0000   1.0000   1.0000   1.0000   1.0000   1.0000   1.0000   1.0000
     1.0000   1.0000   1.0000   1.0000   1.0000   1.0000   1.0000   1.0000
     1.0000   1.0000

          k =-0.1742 0.5029-0.0666 (  5734 PWs)   bands (ev):

   -47.2124 -47.2083 -34.9535 -34.9527 -23.5087 -23.4536 -23.4462 -23.4199
   -23.3871 -23.3312  -9.3879  -8.9563  -8.8691  -8.7541  -8.6755  -8.3544
     2.5954   3.0370   3.1597   3.2865   3.4956   3.9085   4.1626   4.3745
     4.6432   5.0889   5.3257   5.9185   6.1398   6.2790   6.5581   6.7000
     6.7681   6.8808

     occupation numbers 
     1.0000   1.0000   1.0000   1.0000   1.0000   1.0000   1.0000   1.0000
     1.0000   1.0000   1.0000   1.0000   1.0000   1.0000   1.0000   1.0000
     1.0000   1.0000   1.0000   1.0000   1.0000   1.0000   1.0000   1.0000
     1.0000   1.0000   1.0000   1.0000   1.0000   1.0000   1.0000   1.0000
     1.0000   1.0000

          k =-0.1742 0.3017 0.0000 (  5716 PWs)   bands (ev):

   -47.2150 -47.2056 -34.9539 -34.9521 -23.5177 -23.4848 -23.4269 -23.4121
   -23.3869 -23.3133  -9.6346  -9.1062  -9.0073  -8.5396  -8.4389  -8.2274
     2.5171   2.7208   3.0047   3.1285   3.5503   3.8667   4.0072   4.2780
     4.9197   5.5199   5.8122   6.0247   6.2501   6.3276   6.5464   6.6625
     6.7292   6.9250

     occupation numbers 
     1.0000   1.0000   1.0000   1.0000   1.0000   1.0000   1.0000   1.0000
     1.0000   1.0000   1.0000   1.0000   1.0000   1.0000   1.0000   1.0000
     1.0000   1.0000   1.0000   1.0000   1.0000   1.0000   1.0000   1.0000
     1.0000   1.0000   1.0000   1.0000   1.0000   1.0000   1.0000   1.0000
     1.0000   1.0000

          k =-0.3484-0.2012 0.2666 (  5733 PWs)   bands (ev):

   -47.2139 -47.2068 -34.9538 -34.9524 -23.5293 -23.4967 -23.4839 -23.3650
   -23.3615 -23.3058  -9.5987  -9.1557  -8.9755  -8.6620  -8.2830  -8.2557
     2.4782   2.6314   2.8606   2.9740   3.6111   3.9290   4.5410   4.7650
     5.1444   5.4315   5.6779   5.8240   5.9109   6.2194   6.3034   6.5539
     6.5548   6.8059

     occupation numbers 
     1.0000   1.0000   1.0000   1.0000   1.0000   1.0000   1.0000   1.0000
     1.0000   1.0000   1.0000   1.0000   1.0000   1.0000   1.0000   1.0000
     1.0000   1.0000   1.0000   1.0000   1.0000   1.0000   1.0000   1.0000
     1.0000   1.0000   1.0000   1.0000   1.0000   1.0000   1.0000   1.0000
     1.0000   1.0000

          k =-0.3484 0.8046-0.0666 (  5723 PWs)   bands (ev):

   -47.2124 -47.2083 -34.9535 -34.9527 -23.5215 -23.5135 -23.4859 -23.3729
   -23.3336 -23.3167  -9.4659  -9.1797  -9.0776  -8.4673  -8.3879  -8.3546
     2.4427   2.5740   2.7822   3.1318   3.8446   4.1857   4.3641   4.7971
     4.9917   5.3684   5.6302   5.7769   5.9149   6.0886   6.2608   6.4405
     6.5991   6.8271

     occupation numbers 
     1.0000   1.0000   1.0000   1.0000   1.0000   1.0000   1.0000   1.0000
     1.0000   1.0000   1.0000   1.0000   1.0000   1.0000   1.0000   1.0000
     1.0000   1.0000   1.0000   1.0000   1.0000   1.0000   1.0000   1.0000
     1.0000   1.0000   1.0000   1.0000   1.0000   1.0000   1.0000   1.0000
     1.0000   1.0000

          k =-0.3484 0.6035 0.0000 (  5740 PWs)   bands (ev):

   -47.2103 -47.2103 -34.9531 -34.9531 -23.5222 -23.4941 -23.4564 -23.4041
   -23.3468 -23.3227  -9.3128  -9.2160  -8.9184  -8.6336  -8.5385  -8.3468
     2.4548   2.6687   3.0749   3.4473   3.7432   3.8047   4.2799   4.6587
     4.8389   5.2158   5.5402   5.7141   6.0717   6.1387   6.3012   6.5911
     6.6519   6.8635

     occupation numbers 
     1.0000   1.0000   1.0000   1.0000   1.0000   1.0000   1.0000   1.0000
     1.0000   1.0000   1.0000   1.0000   1.0000   1.0000   1.0000   1.0000
     1.0000   1.0000   1.0000   1.0000   1.0000   1.0000   1.0000   1.0000
     1.0000   1.0000   1.0000   1.0000   1.0000   1.0000   1.0000   1.0000
     1.0000   1.0000

          k = 0.5226 0.3017-0.3999 (  5718 PWs)   bands (ev):

   -47.2127 -47.2079 -34.9536 -34.9526 -23.5322 -23.5255 -23.4972 -23.3605
   -23.3218 -23.3056  -9.5333  -9.2203  -9.1233  -8.4194  -8.3062  -8.2955
     2.4337   2.4665   2.6164   2.8039   4.1637   4.4054   4.6170   4.9909
     5.1090   5.1941   5.6161   5.7183   5.8909   5.9914   6.2629   6.3962
     6.4901   6.7586

     occupation numbers 
     1.0000   1.0000   1.0000   1.0000   1.0000   1.0000   1.0000   1.0000
     1.0000   1.0000   1.0000   1.0000   1.0000   1.0000   1.0000   1.0000
     1.0000   1.0000   1.0000   1.0000   1.0000   1.0000   1.0000   1.0000
     1.0000   1.0000   1.0000   1.0000   1.0000   1.0000   1.0000   1.0000
     1.0000   1.0000

          k =-0.0000 0.0000 0.1999 (  5736 PWs)   bands (ev):

   -47.2165 -47.2042 -34.9542 -34.9518 -23.5116 -23.5116 -23.4508 -23.3787
   -23.3787 -23.3050  -9.7860  -9.1526  -9.1526  -8.3983  -8.2184  -8.2184
     2.6429   2.6429   2.9016   3.0137   3.0137   3.7695   4.6614   4.6614
     4.6817   5.8032   5.9037   5.9037   6.1472   6.3294   6.3294   6.5768
     6.9662   6.9662

     occupation numbers 
     1.0000   1.0000   1.0000   1.0000   1.0000   1.0000   1.0000   1.0000
     1.0000   1.0000   1.0000   1.0000   1.0000   1.0000   1.0000   1.0000
     1.0000   1.0000   1.0000   1.0000   1.0000   1.0000   1.0000   1.0000
     1.0000   1.0000   1.0000   1.0000   1.0000   1.0000   1.0000   1.0000
     1.0000   1.0000

          k =-0.0000-0.2012 0.2666 (  5722 PWs)   bands (ev):

   -47.2151 -47.2056 -34.9539 -34.9521 -23.5179 -23.4820 -23.4288 -23.4098
   -23.3879 -23.3141  -9.6481  -9.0914  -9.0057  -8.5905  -8.4015  -8.2331
     2.5452   2.7816   3.0896   3.3369   3.4327   3.9153   4.2092   4.2752
     4.7074   5.2897   5.7174   5.9895   6.0429   6.3435   6.5005   6.5591
     6.8491   6.9014

     occupation numbers 
     1.0000   1.0000   1.0000   1.0000   1.0000   1.0000   1.0000   1.0000
     1.0000   1.0000   1.0000   1.0000   1.0000   1.0000   1.0000   1.0000
     1.0000   1.0000   1.0000   1.0000   1.0000   1.0000   1.0000   1.0000
     1.0000   1.0000   1.0000   1.0000   1.0000   1.0000   1.0000   1.0000
     1.0000   1.0000

          k = 0.0000 0.8046-0.0666 (  5714 PWs)   bands (ev):

   -47.2124 -47.2083 -34.9534 -34.9527 -23.5096 -23.4505 -23.4428 -23.4226
   -23.3892 -23.3311  -9.3946  -8.9493  -8.9056  -8.7446  -8.6431  -8.3707
     2.5532   2.9846   3.3830   3.5378   3.6554   3.9392   3.9902   4.3710
     4.5564   4.6733   5.3601   5.8728   6.2193   6.3107   6.5623   6.6241
     6.7444   6.7896

     occupation numbers 
     1.0000   1.0000   1.0000   1.0000   1.0000   1.0000   1.0000   1.0000
     1.0000   1.0000   1.0000   1.0000   1.0000   1.0000   1.0000   1.0000
     1.0000   1.0000   1.0000   1.0000   1.0000   1.0000   1.0000   1.0000
     1.0000   1.0000   1.0000   1.0000   1.0000   1.0000   1.0000   1.0000
     1.0000   1.0000

          k = 0.0000 0.6035 0.0000 (  5740 PWs)   bands (ev):

   -47.2115 -47.2091 -34.9533 -34.9528 -23.4896 -23.4826 -23.4613 -23.4038
   -23.3624 -23.3473  -9.2878  -9.0906  -8.9349  -8.6071  -8.5757  -8.5056
     2.7842   2.9500   3.0090   3.2354   3.6513   3.9170   4.1913   4.4676
     4.7827   4.9385   5.3995   5.5513   6.2125   6.4383   6.4860   6.6268
     6.6510   6.8716

     occupation numbers 
     1.0000   1.0000   1.0000   1.0000   1.0000   1.0000   1.0000   1.0000
     1.0000   1.0000   1.0000   1.0000   1.0000   1.0000   1.0000   1.0000
     1.0000   1.0000   1.0000   1.0000   1.0000   1.0000   1.0000   1.0000
     1.0000   1.0000   1.0000   1.0000   1.0000   1.0000   1.0000   1.0000
     1.0000   1.0000

          k = 0.0000 0.4023 0.0666 (  5737 PWs)   bands (ev):

   -47.2144 -47.2062 -34.9538 -34.9522 -23.5162 -23.4899 -23.4430 -23.4028
   -23.3755 -23.3156  -9.5883  -9.1289  -8.8651  -8.7446  -8.3421  -8.2879
     2.5944   2.7319   2.8442   3.4002   3.4073   3.6432   4.2169   4.5812
     4.8010   5.5694   5.7020   6.0040   6.1369   6.2752   6.3976   6.6464
     6.7373   6.8966

     occupation numbers 
     1.0000   1.0000   1.0000   1.0000   1.0000   1.0000   1.0000   1.0000
     1.0000   1.0000   1.0000   1.0000   1.0000   1.0000   1.0000   1.0000
     1.0000   1.0000   1.0000   1.0000   1.0000   1.0000   1.0000   1.0000
     1.0000   1.0000   1.0000   1.0000   1.0000   1.0000   1.0000   1.0000
     1.0000   1.0000

          k =-0.1742-0.1006 0.3332 (  5717 PWs)   bands (ev):

   -47.2144 -47.2062 -34.9538 -34.9523 -23.5159 -23.4879 -23.4415 -23.4041
   -23.3752 -23.3166  -9.6062  -9.1105  -8.8598  -8.7734  -8.3479  -8.2805
     2.6522   2.7647   3.1184   3.4118   3.4423   3.7068   4.2671   4.6235
     4.6826   5.3276   5.5026   5.9824   6.0523   6.1308   6.2328   6.6114
     6.7737   6.8899

     occupation numbers 
     1.0000   1.0000   1.0000   1.0000   1.0000   1.0000   1.0000   1.0000
     1.0000   1.0000   1.0000   1.0000   1.0000   1.0000   1.0000   1.0000
     1.0000   1.0000   1.0000   1.0000   1.0000   1.0000   1.0000   1.0000
     1.0000   1.0000   1.0000   1.0000   1.0000   1.0000   1.0000   1.0000
     1.0000   1.0000

          k =-0.1742 0.9052 0.0000 (  5726 PWs)   bands (ev):

   -47.2127 -47.2080 -34.9535 -34.9526 -23.5210 -23.4824 -23.4661 -23.3916
   -23.3641 -23.3188  -9.4750  -9.0430  -9.0114  -8.6291  -8.5219  -8.2987
     2.5171   2.8369   3.0519   3.4931   3.5865   3.9721   4.1630   4.5837
     4.8334   5.1319   5.5846   5.7312   6.0061   6.1278   6.3061   6.5225
     6.6680   6.7929

     occupation numbers 
     1.0000   1.0000   1.0000   1.0000   1.0000   1.0000   1.0000   1.0000
     1.0000   1.0000   1.0000   1.0000   1.0000   1.0000   1.0000   1.0000
     1.0000   1.0000   1.0000   1.0000   1.0000   1.0000   1.0000   1.0000
     1.0000   1.0000   1.0000   1.0000   1.0000   1.0000   1.0000   1.0000
     1.0000   1.0000

          k =-0.1742 0.7041 0.0666 (  5735 PWs)   bands (ev):

   -47.2103 -47.2103 -34.9531 -34.9531 -23.5122 -23.5111 -23.4295 -23.4278
   -23.3330 -23.3324  -9.2831  -9.2694  -8.8445  -8.7449  -8.4227  -8.4070
     2.5290   2.6479   3.0919   3.3377   3.7644   4.1270   4.2038   4.4816
     4.8561   5.1759   5.6460   5.7807   5.8662   6.1303   6.3431   6.4742
     6.6794   6.7912

     occupation numbers 
     1.0000   1.0000   1.0000   1.0000   1.0000   1.0000   1.0000   1.0000
     1.0000   1.0000   1.0000   1.0000   1.0000   1.0000   1.0000   1.0000
     1.0000   1.0000   1.0000   1.0000   1.0000   1.0000   1.0000   1.0000
     1.0000   1.0000   1.0000   1.0000   1.0000   1.0000   1.0000   1.0000
     1.0000   1.0000

          k =-0.1742 0.5029 0.1333 (  5724 PWs)   bands (ev):

   -47.2127 -47.2080 -34.9535 -34.9526 -23.5209 -23.4834 -23.4677 -23.3915
   -23.3632 -23.3184  -9.4632  -9.0477  -9.0036  -8.6277  -8.5307  -8.2900
     2.4847   2.8306   2.9220   3.2361   3.5920   3.9827   4.1322   4.7212
     4.8273   5.3756   5.5391   5.8348   6.0833   6.2645   6.3556   6.4946
     6.6631   6.8792

     occupation numbers 
     1.0000   1.0000   1.0000   1.0000   1.0000   1.0000   1.0000   1.0000
     1.0000   1.0000   1.0000   1.0000   1.0000   1.0000   1.0000   1.0000
     1.0000   1.0000   1.0000   1.0000   1.0000   1.0000   1.0000   1.0000
     1.0000   1.0000   1.0000   1.0000   1.0000   1.0000   1.0000   1.0000
     1.0000   1.0000

          k = 0.6968 0.4023-0.3332 (  5757 PWs)   bands (ev):

   -47.2124 -47.2083 -34.9535 -34.9527 -23.5206 -23.5132 -23.4862 -23.3720
   -23.3338 -23.3176  -9.4752  -9.1853  -9.0683  -8.4707  -8.3946  -8.3496
     2.5897   2.6426   2.7256   3.0564   3.9553   4.1237   4.4583   4.7573
     5.1741   5.2674   5.6060   5.6807   5.8827   6.0624   6.1940   6.3084
     6.4566   6.8217

     occupation numbers 
     1.0000   1.0000   1.0000   1.0000   1.0000   1.0000   1.0000   1.0000
     1.0000   1.0000   1.0000   1.0000   1.0000   1.0000   1.0000   1.0000
     1.0000   1.0000   1.0000   1.0000   1.0000   1.0000   1.0000   1.0000
     1.0000   1.0000   1.0000   1.0000   1.0000   1.0000   1.0000   1.0000
     1.0000   1.0000

          k = 0.6968 0.2012-0.2666 (  5732 PWs)   bands (ev):

   -47.2115 -47.2091 -34.9533 -34.9528 -23.5245 -23.5228 -23.4665 -23.3901
   -23.3224 -23.3184  -9.4056  -9.2642  -8.9909  -8.5658  -8.3840  -8.3264
     2.4497   2.4864   2.8524   3.3323   3.6320   4.3668   4.5061   4.6790
     5.1688   5.2928   5.5084   5.6143   5.8895   6.0619   6.2945   6.3711
     6.5210   6.8142

     occupation numbers 
     1.0000   1.0000   1.0000   1.0000   1.0000   1.0000   1.0000   1.0000
     1.0000   1.0000   1.0000   1.0000   1.0000   1.0000   1.0000   1.0000
     1.0000   1.0000   1.0000   1.0000   1.0000   1.0000   1.0000   1.0000
     1.0000   1.0000   1.0000   1.0000   1.0000   1.0000   1.0000   1.0000
     1.0000   1.0000

          k = 0.6968-0.0000-0.1999 (  5720 PWs)   bands (ev):

   -47.2103 -47.2103 -34.9531 -34.9531 -23.5118 -23.5118 -23.4290 -23.4290
   -23.3324 -23.3324  -9.2730  -9.2730  -8.8000  -8.8000  -8.4101  -8.4101
     2.5481   2.5481   3.2128   3.2128   3.8973   3.8973   4.3670   4.3670
     4.9932   4.9932   5.7396   5.7396   6.0686   6.0686   6.4303   6.4303
     6.7709   6.7709

     occupation numbers 
     1.0000   1.0000   1.0000   1.0000   1.0000   1.0000   1.0000   1.0000
     1.0000   1.0000   1.0000   1.0000   1.0000   1.0000   1.0000   1.0000
     1.0000   1.0000   1.0000   1.0000   1.0000   1.0000   1.0000   1.0000
     1.0000   1.0000   1.0000   1.0000   1.0000   1.0000   1.0000   1.0000
     1.0000   1.0000

          k = 0.5226 0.3017-0.1999 (  5741 PWs)   bands (ev):

   -47.2124 -47.2083 -34.9535 -34.9527 -23.5208 -23.5137 -23.4868 -23.3721
   -23.3335 -23.3172  -9.4667  -9.1823  -9.0729  -8.4725  -8.3851  -8.3533
     2.5164   2.6465   2.7230   2.9330   3.8953   4.2019   4.4633   4.7167
     5.1303   5.2366   5.6884   5.9228   5.9835   6.0675   6.2644   6.2865
     6.4522   6.8454

     occupation numbers 
     1.0000   1.0000   1.0000   1.0000   1.0000   1.0000   1.0000   1.0000
     1.0000   1.0000   1.0000   1.0000   1.0000   1.0000   1.0000   1.0000
     1.0000   1.0000   1.0000   1.0000   1.0000   1.0000   1.0000   1.0000
     1.0000   1.0000   1.0000   1.0000   1.0000   1.0000   1.0000   1.0000
     1.0000   1.0000

          k =-0.0000 0.0000 0.3999 (  5688 PWs)   bands (ev):

   -47.2139 -47.2068 -34.9537 -34.9524 -23.4842 -23.4842 -23.4215 -23.4075
   -23.4075 -23.3373  -9.5140  -8.9682  -8.9682  -8.7159  -8.4304  -8.4304
     2.9605   2.9605   3.2825   3.5597   3.5597   4.0947   4.1325   4.1325
     4.2319   5.1817   5.1817   5.4851   6.0725   6.4090   6.4090   6.5413
     6.8703   6.8703

     occupation numbers 
     1.0000   1.0000   1.0000   1.0000   1.0000   1.0000   1.0000   1.0000
     1.0000   1.0000   1.0000   1.0000   1.0000   1.0000   1.0000   1.0000
     1.0000   1.0000   1.0000   1.0000   1.0000   1.0000   1.0000   1.0000
     1.0000   1.0000   1.0000   1.0000   1.0000   1.0000   1.0000   1.0000
     1.0000   1.0000

          k = 0.0000 1.0058 0.0666 (  5722 PWs)   bands (ev):

   -47.2124 -47.2083 -34.9534 -34.9527 -23.5080 -23.4503 -23.4425 -23.4208
   -23.3902 -23.3324  -9.4124  -8.9513  -8.8854  -8.7631  -8.6553  -8.3613
     2.7368   3.1508   3.3929   3.5862   3.6237   3.9341   4.0907   4.4011
     4.5661   4.5759   5.2430   5.7066   6.0409   6.0579   6.5223   6.6052
     6.7069   6.7550

     occupation numbers 
     1.0000   1.0000   1.0000   1.0000   1.0000   1.0000   1.0000   1.0000
     1.0000   1.0000   1.0000   1.0000   1.0000   1.0000   1.0000   1.0000
     1.0000   1.0000   1.0000   1.0000   1.0000   1.0000   1.0000   1.0000
     1.0000   1.0000   1.0000   1.0000   1.0000   1.0000   1.0000   1.0000
     1.0000   1.0000

          k = 0.0000 0.8046 0.1333 (  5731 PWs)   bands (ev):

   -47.2103 -47.2103 -34.9531 -34.9531 -23.5222 -23.4917 -23.4581 -23.4014
   -23.3488 -23.3229  -9.3200  -9.2340  -8.9070  -8.6207  -8.5438  -8.3566
     2.4932   2.9591   2.9739   3.4402   3.7657   3.7750   4.5020   4.5621
     4.9444   5.1396   5.5337   5.5467   5.8274   6.1176   6.3413   6.3945
     6.5482   6.8326

     occupation numbers 
     1.0000   1.0000   1.0000   1.0000   1.0000   1.0000   1.0000   1.0000
     1.0000   1.0000   1.0000   1.0000   1.0000   1.0000   1.0000   1.0000
     1.0000   1.0000   1.0000   1.0000   1.0000   1.0000   1.0000   1.0000
     1.0000   1.0000   1.0000   1.0000   1.0000   1.0000   1.0000   1.0000
     1.0000   1.0000

          k = 0.8710 0.5029-0.2666 (  5725 PWs)   bands (ev):

   -47.2115 -47.2091 -34.9533 -34.9528 -23.4891 -23.4805 -23.4587 -23.4033
   -23.3641 -23.3487  -9.3154  -9.1067  -8.9156  -8.5988  -8.5979  -8.4989
     3.0007   3.0882   3.1043   3.6457   3.7430   3.9030   4.0397   4.3586
     4.6974   4.8265   5.1458   5.3813   6.1181   6.1966   6.3620   6.5503
     6.5866   6.8014

     occupation numbers 
     1.0000   1.0000   1.0000   1.0000   1.0000   1.0000   1.0000   1.0000
     1.0000   1.0000   1.0000   1.0000   1.0000   1.0000   1.0000   1.0000
     1.0000   1.0000   1.0000   1.0000   1.0000   1.0000   1.0000   1.0000
     1.0000   1.0000   1.0000   1.0000   1.0000   1.0000   1.0000   1.0000
     1.0000   1.0000

          k = 0.8710 0.3017-0.1999 (  5738 PWs)   bands (ev):

   -47.2103 -47.2103 -34.9531 -34.9531 -23.5110 -23.5110 -23.4281 -23.4281
   -23.3333 -23.3333  -9.2871  -9.2871  -8.7904  -8.7904  -8.4161  -8.4161
     2.6758   2.6758   3.2319   3.2319   4.0086   4.0086   4.2995   4.2995
     5.0750   5.0750   5.5608   5.5608   5.9249   5.9249   6.3087   6.3087
     6.7113   6.7113

     occupation numbers 
     1.0000   1.0000   1.0000   1.0000   1.0000   1.0000   1.0000   1.0000
     1.0000   1.0000   1.0000   1.0000   1.0000   1.0000   1.0000   1.0000
     1.0000   1.0000   1.0000   1.0000   1.0000   1.0000   1.0000   1.0000
     1.0000   1.0000   1.0000   1.0000   1.0000   1.0000   1.0000   1.0000
     1.0000   1.0000

          k = 0.0000 0.0000-0.5998 (  5704 PWs)   bands (ev):

   -47.2103 -47.2103 -34.9530 -34.9530 -23.4462 -23.4462 -23.4462 -23.4462
   -23.3802 -23.3802  -9.1262  -9.1262  -8.7062  -8.7062  -8.7062  -8.7062
     3.4870   3.4870   3.4870   3.4870   3.7428   3.7428   4.3370   4.3370
     4.3370   4.3370   4.7123   4.7123   6.3596   6.3596   6.6404   6.6404
     6.6404   6.6404

     occupation numbers 
     1.0000   1.0000   1.0000   1.0000   1.0000   1.0000   1.0000   1.0000
     1.0000   1.0000   1.0000   1.0000   1.0000   1.0000   1.0000   1.0000
     1.0000   1.0000   1.0000   1.0000   1.0000   1.0000   1.0000   1.0000
     1.0000   1.0000   1.0000   1.0000   1.0000   1.0000   1.0000   1.0000
     1.0000   1.0000

     highest occupied level (ev):     6.9662

!    total energy              =    -936.83339272 Ry
     estimated scf accuracy    <          3.7E-13 Ry

     The total energy is the sum of the following terms:
     one-electron contribution =    -143.27675041 Ry
     hartree contribution      =     105.60186782 Ry
     xc contribution           =    -108.10673189 Ry
     ewald contribution        =    -327.59763010 Ry
     one-center paw contrib.   =    -463.45414814 Ry
      -> PAW hartree energy AE =     292.03042264 Ry
      -> PAW hartree energy PS =    -290.51664511 Ry
      -> PAW xc energy AE      =    -560.48716459 Ry
      -> PAW xc energy PS      =      95.51923892 Ry
      -> total E_H with PAW    =     107.11564535 Ry
      -> total E_XC with PAW   =    -573.07465756 Ry

     convergence has been achieved in  25 iterations

     Forces acting on atoms (cartesian axes, Ry/au):

     atom    1 type  1   force =     0.00000000   -0.00000000   -0.00165102
     atom    2 type  1   force =     0.00000000   -0.00000000   -0.00165102
     atom    3 type  2   force =     0.01396446   -0.00478951   -0.00350995
     atom    4 type  2   force =    -0.00283439    0.01448833   -0.00350995
     atom    5 type  2   force =    -0.01113007   -0.00969882   -0.00350995
     atom    6 type  2   force =     0.00283439    0.01448833   -0.00350995
     atom    7 type  2   force =    -0.01396446   -0.00478951   -0.00350995
     atom    8 type  2   force =     0.01113007   -0.00969882   -0.00350995
     atom    9 type  3   force =     0.00000000   -0.00000000    0.01218087
     atom   10 type  3   force =     0.00000000   -0.00000000    0.01218087
     The non-local contrib.  to forces
     atom    1 type  1   force =    -0.00000000    0.00000000    0.00553362
     atom    2 type  1   force =    -0.00000000    0.00000000    0.00553362
     atom    3 type  2   force =     0.32424850   -0.20815433   -0.03675326
     atom    4 type  2   force =     0.01814269    0.38488460   -0.03675326
     atom    5 type  2   force =    -0.34239119   -0.17673027   -0.03675326
     atom    6 type  2   force =    -0.01814269    0.38488460   -0.03675326
     atom    7 type  2   force =    -0.32424850   -0.20815433   -0.03675326
     atom    8 type  2   force =     0.34239119   -0.17673027   -0.03675326
     atom    9 type  3   force =     0.00000000    0.00000000   -0.01050354
     atom   10 type  3   force =     0.00000000   -0.00000000   -0.01050354
     The ionic contribution  to forces
     atom    1 type  1   force =     0.00000000   -0.00000000   -1.18552173
     atom    2 type  1   force =    -0.00000000   -0.00000000   -1.18552173
     atom    3 type  2   force =    -3.52495134    2.75731096    0.31251476
     atom    4 type  2   force =    -0.62542567   -4.43135288    0.31251476
     atom    5 type  2   force =     4.15037700    1.67404193    0.31251476
     atom    6 type  2   force =     0.62542567   -4.43135288    0.31251476
     atom    7 type  2   force =     3.52495134    2.75731096    0.31251476
     atom    8 type  2   force =    -4.15037700    1.67404192    0.31251476
     atom    9 type  3   force =     0.00000000   -0.00000000    0.24797744
     atom   10 type  3   force =     0.00000000    0.00000000    0.24797744
     The local contribution  to forces
     atom    1 type  1   force =     0.00000000   -0.00000000    1.17833711
     atom    2 type  1   force =    -0.00000000    0.00000000    1.17833711
     atom    3 type  2   force =     3.21611218   -2.55577526   -0.27916426
     atom    4 type  2   force =     0.60531021    4.06312248   -0.27916426
     atom    5 type  2   force =    -3.82142239   -1.50734722   -0.27916426
     atom    6 type  2   force =    -0.60531021    4.06312248   -0.27916426
     atom    7 type  2   force =    -3.21611218   -2.55577525   -0.27916426
     atom    8 type  2   force =     3.82142239   -1.50734722   -0.27916426
     atom    9 type  3   force =    -0.00000000    0.00000000   -0.22106954
     atom   10 type  3   force =    -0.00000000    0.00000000   -0.22106955
     The core correction contribution to forces
     atom    1 type  1   force =     0.00000000    0.00000000    0.00000000
     atom    2 type  1   force =     0.00000000    0.00000000    0.00000000
     atom    3 type  2   force =    -0.00144515    0.00182923   -0.00010717
     atom    4 type  2   force =    -0.00086158   -0.00216615   -0.00010717
     atom    5 type  2   force =     0.00230673    0.00033692   -0.00010717
     atom    6 type  2   force =     0.00086158   -0.00216615   -0.00010717
     atom    7 type  2   force =     0.00144515    0.00182923   -0.00010717
     atom    8 type  2   force =    -0.00230673    0.00033692   -0.00010717
     atom    9 type  3   force =    -0.00000000    0.00000000   -0.00422354
     atom   10 type  3   force =    -0.00000000   -0.00000000   -0.00422354
     The Hubbard contrib.    to forces
     atom    1 type  1   force =     0.00000000    0.00000000    0.00000000
     atom    2 type  1   force =     0.00000000    0.00000000    0.00000000
     atom    3 type  2   force =     0.00000000    0.00000000    0.00000000
     atom    4 type  2   force =     0.00000000    0.00000000    0.00000000
     atom    5 type  2   force =     0.00000000    0.00000000    0.00000000
     atom    6 type  2   force =     0.00000000    0.00000000    0.00000000
     atom    7 type  2   force =     0.00000000    0.00000000    0.00000000
     atom    8 type  2   force =     0.00000000    0.00000000    0.00000000
     atom    9 type  3   force =     0.00000000    0.00000000    0.00000000
     atom   10 type  3   force =     0.00000000    0.00000000    0.00000000
     The SCF correction term to forces
     atom    1 type  1   force =     0.00000000    0.00000000    0.00000001
     atom    2 type  1   force =    -0.00000000    0.00000000    0.00000001
     atom    3 type  2   force =     0.00000027   -0.00000011    0.00000000
     atom    4 type  2   force =    -0.00000004    0.00000028    0.00000000
     atom    5 type  2   force =    -0.00000023   -0.00000018    0.00000000
     atom    6 type  2   force =     0.00000004    0.00000028    0.00000000
     atom    7 type  2   force =    -0.00000027   -0.00000011    0.00000000
     atom    8 type  2   force =     0.00000023   -0.00000018    0.00000000
     atom    9 type  3   force =    -0.00000000   -0.00000000    0.00000009
     atom   10 type  3   force =    -0.00000000    0.00000000    0.00000009

     Total force =     0.041034     Total SCF correction =     0.000001


     Computing stress (Cartesian axis) and pressure

          total   stress  (Ry/bohr**3)                   (kbar)     P=      -60.61
  -0.00053728  -0.00000000  -0.00000000          -79.04       -0.00       -0.00
   0.00000000  -0.00053728  -0.00000000            0.00      -79.04       -0.00
   0.00000000  -0.00000000  -0.00016159            0.00       -0.00      -23.77

     kinetic stress (kbar)  25902.35      0.00     -0.00
                                0.00  25902.35      0.00
                               -0.00      0.00  25908.53

     local   stress (kbar) -13139.42     -0.00     -0.00
                               -0.00 -13139.42     -0.00
                               -0.00     -0.00 -10400.28

     nonloc. stress (kbar)   6765.33      0.00     -0.00
                                0.00   6765.33      0.00
                               -0.00      0.00   6815.57

     hartree stress (kbar)   7333.79     -0.00      0.00
                               -0.00   7333.79      0.00
                                0.00      0.00   6619.06

     exc-cor stress (kbar)   1060.48      0.00     -0.00
                                0.00   1060.48      0.00
                               -0.00      0.00   1056.70

     corecor stress (kbar)  -6663.46     -0.00     -0.00
                               -0.00  -6663.46     -0.00
                               -0.00     -0.00  -6664.24

     ewald   stress (kbar) -21338.11      0.00      0.00
                                0.00 -21338.11      0.00
                                0.00      0.00 -23359.11

     hubbard stress (kbar)      0.00      0.00      0.00
                                0.00      0.00      0.00
                                0.00      0.00      0.00

     DFT-D   stress (kbar)      0.00      0.00      0.00
                                0.00      0.00      0.00
                                0.00      0.00      0.00

     XDM     stress (kbar)      0.00      0.00      0.00
                                0.00      0.00      0.00
                                0.00      0.00      0.00

     dft-nl  stress (kbar)      0.00      0.00      0.00
                                0.00      0.00      0.00
                                0.00      0.00      0.00

     TS-vdW  stress (kbar)      0.00      0.00      0.00
                                0.00      0.00      0.00
                                0.00      0.00      0.00

     MDB     stress (kbar)      0.00      0.00      0.00
                                0.00      0.00      0.00
                                0.00      0.00      0.00

     3D-RISM stress (kbar)      0.00      0.00      0.00
                                0.00      0.00      0.00
                                0.00      0.00      0.00

     Message from routine punch:
     Nothing written, as per user request (disk_io='none')
 
     init_run     :      0.55s CPU      0.78s WALL (       1 calls)
     electrons    :     19.03s CPU     19.50s WALL (       1 calls)
     forces       :      0.08s CPU      0.08s WALL (       1 calls)
     stress       :      0.16s CPU      0.17s WALL (       1 calls)

     Called by init_run:
     wfcinit      :      0.18s CPU      0.30s WALL (       1 calls)
     wfcinit:atom :      0.02s CPU      0.03s WALL (      32 calls)
     wfcinit:wfcr :      0.13s CPU      0.21s WALL (      32 calls)
     potinit      :      0.09s CPU      0.12s WALL (       1 calls)
     hinit0       :      0.20s CPU      0.23s WALL (       1 calls)

     Called by electrons:
     c_bands      :     14.88s CPU     15.19s WALL (      25 calls)
     sum_band     :      1.75s CPU      1.77s WALL (      25 calls)
     v_of_rho     :      0.10s CPU      0.14s WALL (      26 calls)
     v_h          :      0.03s CPU      0.07s WALL (      26 calls)
     v_xc         :      0.06s CPU      0.08s WALL (      28 calls)
     newd         :      0.24s CPU      0.28s WALL (      26 calls)
     PAW_pot      :      1.88s CPU      1.94s WALL (      26 calls)
     mix_rho      :      0.17s CPU      0.18s WALL (      25 calls)

     Called by c_bands:
     init_us_2    :      0.56s CPU      0.57s WALL (    1696 calls)
     cegterg      :     13.69s CPU     13.96s WALL (     803 calls)

     Called by sum_band:
     sum_band:wei :      0.00s CPU      0.00s WALL (      25 calls)
     sum_band:loo :      1.35s CPU      1.36s WALL (      25 calls)
     sum_band:buf :      0.22s CPU      0.23s WALL (     800 calls)
     sum_band:ini :      0.27s CPU      0.27s WALL (     800 calls)
     sum_band:cal :      0.01s CPU      0.01s WALL (     800 calls)
     sum_band:bec :      0.31s CPU      0.31s WALL (     800 calls)
     addusdens    :      0.27s CPU      0.27s WALL (      25 calls)
                                        0.27s GPU  (      25 calls)
     addusd:skk   :      0.01s CPU      0.01s WALL (      75 calls)
                                        0.01s GPU  (      75 calls)

     Called by *egterg:
     cdiaghg      :      6.04s CPU      6.18s WALL (    5049 calls)
                                        6.13s GPU  (    5049 calls)
     cegterg:over :      0.40s CPU      0.41s WALL (    4246 calls)
     cegterg:upda :      1.33s CPU      1.33s WALL (    4246 calls)
     cegterg:last :      0.18s CPU      0.18s WALL (    2784 calls)
     h_psi        :      3.73s CPU      3.98s WALL (    5081 calls)
     s_psi        :      1.35s CPU      1.37s WALL (    5081 calls)
     g_psi        :      0.09s CPU      0.09s WALL (    4246 calls)

     Called by h_psi:
     h_psi:calbec :      0.09s CPU      0.12s WALL (    5081 calls)
     vloc_psi     :      2.37s CPU      2.62s WALL (    5081 calls)
                                        2.57s GPU  (    5081 calls)
     add_vuspsi   :      1.13s CPU      1.15s WALL (    5081 calls)

     General routines
     calbec       :      0.10s CPU      0.13s WALL (    6425 calls)
     fft          :      0.03s CPU      0.06s WALL (     361 calls)
                                        0.03s GPU  (     335 calls)
     ffts         :      0.01s CPU      0.02s WALL (      51 calls)
                                        0.00s GPU  (      25 calls)
     fftw         :      0.16s CPU      1.58s WALL (   22062 calls)
                                        1.35s GPU  (   22062 calls)
     interpolate  :      0.07s CPU      0.10s WALL (      26 calls)
 
     Parallel routines

     PAW routines
     PAW_pot      :      1.88s CPU      1.94s WALL (      26 calls)
     PAW_symme    :      0.00s CPU      0.00s WALL (      51 calls)
 
     PWSCF        :     20.15s CPU     20.89s WALL

 
   This run was terminated on:  17: 6:25  29Nov2025            

=------------------------------------------------------------------------------=
   JOB DONE.
=------------------------------------------------------------------------------=
