
     Program PWSCF v.7.5 starts on 29Nov2025 at 17: 6: 6 

     This program is part of the open-source Quantum ESPRESSO suite
     for quantum simulation of materials; please cite
         "P. Giannozzi et al., J. Phys.:Condens. Matter 21 395502 (2009);
         "P. Giannozzi et al., J. Phys.:Condens. Matter 29 465901 (2017);
         "P. Giannozzi et al., J. Chem. Phys. 152 154105 (2020);
          URL http://www.quantum-espresso.org", 
     in publications or presentations arising from this work. More details at
     http://www.quantum-espresso.org/quote

     Parallel version (MPI & OpenMP), running on       1 processor cores
     Number of MPI processes:                 1
     Threads/MPI process:                     1

     MPI processes distributed on     1 nodes
     1786051 MiB available memory on the printing compute node when the environment starts
 
     Reading input from espresso.pwi
Warning: card &CELL ignored
Warning: card &FCP ignored
Warning: card &RISM ignored

     Current dimensions of program PWSCF are:
     Max number of different atomic species (ntypx) = 10
     Max number of k-points (npk) =  40000
     Max angular momentum in pseudopotentials (lmaxx) =  4
     file O.pbesol-n-kjpaw_psl.0.1.UPF: wavefunction(s)  2P renormalized
     file Nb.pbesol-spn-kjpaw_psl.0.3.0.UPF: wavefunction(s)  4S 4P renormalized
     Message from routine setup:
     using ibrav=0 with symmetry is DISCOURAGED, use correct ibrav instead
 
     Subspace diagonalization in iterative solution of the eigenvalue problem:
     a serial algorithm will be used

 
     G-vector sticks info
     --------------------
     sticks:   dense  smooth     PW     G-vecs:    dense   smooth      PW
     Sum        2913    1749    509               100639    46855    7373
 
     Using Slab Decomposition
 


     bravais-lattice index     =            0
     lattice parameter (alat)  =      10.4822  a.u.
     unit-cell volume          =     744.5231 (a.u.)^3
     number of atoms/cell      =           10
     number of atomic types    =            3
     number of electrons       =        68.00
     number of Kohn-Sham states=           34
     kinetic-energy cutoff     =      60.0000  Ry
     charge density cutoff     =     400.0000  Ry
     scf convergence threshold =      1.0E-12
     mixing beta               =       0.7000
     number of iterations used =            8  plain     mixing
     Exchange-correlation= SLA  PW   PSX  PSC
                           (   1   4  10   8   0   0   0)

     GPU acceleration is ACTIVE.  1 visible GPUs per MPI rank


     GPU used by master process:

        Device Number: 0
        Device name: NVIDIA B200
        Compute capability : 100
        Ratio of single to double precision performance  : 16
        Memory Clock Rate (KHz): 3996000
        Memory Bus Width (bits): 7680
        Peak Memory Bandwidth (GB/s): ******

     celldm(1)=  10.482213  celldm(2)=   0.000000  celldm(3)=   0.000000
     celldm(4)=   0.000000  celldm(5)=   0.000000  celldm(6)=   0.000000

     crystal axes: (cart. coord. in units of alat)
               a(1) = (   0.471711   0.272343   0.838640 )  
               a(2) = (  -0.471711   0.272343   0.838640 )  
               a(3) = (   0.000000  -0.544685   0.838640 )  

     reciprocal axes: (cart. coord. in units 2 pi/alat)
               b(1) = (  1.059970  0.611974  0.397469 )  
               b(2) = ( -1.059970  0.611974  0.397469 )  
               b(3) = ( -0.000000 -1.223948  0.397469 )  


     PseudoPot. # 1 for Li read from file:
     /home/qhossain/SSSP_1.3.0_PBEsol_efficiency/li_pbesol_v1.4.uspp.F.UPF
     MD5 check sum: aa28d9aeea6a965f2dc95ee9517b3536
     Pseudo is Ultrasoft, Zval =  3.0
     Generated by new atomic code, or converted to UPF format
     Using radial grid of  751 points,  5 beta functions with: 
                l(1) =   0
                l(2) =   0
                l(3) =   0
                l(4) =   1
                l(5) =   1
     Q(r) pseudized with 10 coefficients,  rinner =    1.150   1.150   1.150


     PseudoPot. # 2 for O  read from file:
     /home/qhossain/SSSP_1.3.0_PBEsol_efficiency/O.pbesol-n-kjpaw_psl.0.1.UPF
     MD5 check sum: 81d73d1479e654e5638b0319f0d6c2c7
     Pseudo is Projector augmented-wave + core cor, Zval =  6.0
     Generated using "atomic" code by A. Dal Corso  v.6.0 svn rev. 13079
     Shape of augmentation charge: BESSEL
     Using radial grid of 1095 points,  4 beta functions with: 
                l(1) =   0
                l(2) =   0
                l(3) =   1
                l(4) =   1
     Q(r) pseudized with 0 coefficients 


     PseudoPot. # 3 for Nb read from file:
     /home/qhossain/SSSP_1.3.0_PBEsol_efficiency/Nb.pbesol-spn-kjpaw_psl.0.3.0.UPF
     MD5 check sum: 3501bca1474143575298708b2d32ca28
     Pseudo is Projector augmented-wave + core cor, Zval = 13.0
     Generated using "atomic" code by A. Dal Corso  v.6.0 svn rev. 13079
     Shape of augmentation charge: PSQ
     Using radial grid of 1227 points,  6 beta functions with: 
                l(1) =   0
                l(2) =   0
                l(3) =   1
                l(4) =   1
                l(5) =   2
                l(6) =   2
     Q(r) pseudized with 0 coefficients 


     atomic species   valence    mass     pseudopotential
     Li                3.00     6.94000     Li( 1.00)
     O                 6.00    15.99900     O ( 1.00)
     Nb               13.00    92.90637     Nb( 1.00)

      6 Sym. Ops. (no inversion) found ( 3 have fractional translation)


                                    s                        frac. trans.

      isym =  1     identity                                     

 cryst.   s( 1) = (     1          0          0      )
                  (     0          1          0      )
                  (     0          0          1      )

 cart.    s( 1) = (  1.0000000 -0.0000000  0.0000000 )
                  (  0.0000000  1.0000000 -0.0000000 )
                  ( -0.0000000 -0.0000000  1.0000000 )


      isym =  2     120 deg rotation - cryst. axis [0,0,1]       

 cryst.   s( 2) = (     0          1          0      )
                  (     0          0          1      )
                  (     1          0          0      )

 cart.    s( 2) = ( -0.5000000 -0.8660254 -0.0000000 )
                  (  0.8660254 -0.5000000 -0.0000000 )
                  ( -0.0000000  0.0000000  1.0000000 )


      isym =  3     120 deg rotation - cryst. axis [0,0,-1]      

 cryst.   s( 3) = (     0          0          1      )
                  (     1          0          0      )
                  (     0          1          0      )

 cart.    s( 3) = ( -0.5000000  0.8660254  0.0000000 )
                  ( -0.8660254 -0.5000000 -0.0000000 )
                  (  0.0000000 -0.0000000  1.0000000 )


      isym =  4     inv. 180 deg rotation - cart. axis [1,0,0]   

 cryst.   s( 4) = (     0          1          0      )    f =(  0.5000000 )
                  (     1          0          0      )       (  0.5000000 )
                  (     0          0          1      )       (  0.5000000 )

 cart.    s( 4) = ( -1.0000000 -0.0000000  0.0000000 )    f =(  0.0000000 )
                  ( -0.0000000  1.0000000 -0.0000000 )       ( -0.0000000 )
                  (  0.0000000 -0.0000000  1.0000000 )       (  1.2579606 )


      isym =  5     inv. 180 deg rotation - cryst. axis [0,1,0]  

 cryst.   s( 5) = (     1          0          0      )    f =(  0.5000000 )
                  (     0          0          1      )       (  0.5000000 )
                  (     0          1          0      )       (  0.5000000 )

 cart.    s( 5) = (  0.5000000  0.8660254  0.0000000 )    f =(  0.0000000 )
                  (  0.8660254 -0.5000000 -0.0000000 )       ( -0.0000000 )
                  ( -0.0000000 -0.0000000  1.0000000 )       (  1.2579606 )


      isym =  6     inv. 180 deg rotation - cryst. axis [1,1,0]  

 cryst.   s( 6) = (     0          0          1      )    f =(  0.5000000 )
                  (     0          1          0      )       (  0.5000000 )
                  (     1          0          0      )       (  0.5000000 )

 cart.    s( 6) = (  0.5000000 -0.8660254 -0.0000000 )    f =( -0.0000000 )
                  ( -0.8660254 -0.5000000 -0.0000000 )       ( -0.0000000 )
                  (  0.0000000  0.0000000  1.0000000 )       (  1.2579606 )


   Cartesian axes

     site n.     atom                  positions (alat units)
         1        Li     tau(   1) = (  -0.0000000  -0.0000000   1.9710456  )
         2        Li     tau(   2) = (  -0.0000000  -0.0000000   0.7130849  )
         3        O      tau(   3) = (  -0.3023581  -0.0385623   1.4242732  )
         4        O      tau(   4) = (   0.1845750  -0.2425686   1.4242732  )
         5        O      tau(   5) = (   0.1177831   0.2811309   1.4242732  )
         6        O      tau(   6) = (   0.2871364   0.0297741   1.0049529  )
         7        O      tau(   7) = (  -0.1693534   0.2337804   1.0049529  )
         8        O      tau(   8) = (  -0.1177831  -0.2635545   1.0049529  )
         9        Nb     tau(   9) = (   0.0000000  -0.0000000   1.2606681  )
        10        Nb     tau(  10) = (  -0.0000000  -0.0000000   0.0027074  )

   Crystallographic axes

     site n.     atom                  positions (cryst. coord.)
         1        Li     tau(   1) = (  0.7834289  0.7834289  0.7834289  )
         2        Li     tau(   2) = (  0.2834289  0.2834289  0.2834289  )
         3        O      tau(   3) = (  0.2220144  0.8629954  0.6133023  )
         4        O      tau(   4) = (  0.6133023  0.2220144  0.8629954  )
         5        O      tau(   5) = (  0.8629954  0.6133023  0.2220144  )
         6        O      tau(   6) = (  0.7220144  0.1133023  0.3629954  )
         7        O      tau(   7) = (  0.3629954  0.7220144  0.1133023  )
         8        O      tau(   8) = (  0.1133023  0.3629954  0.7220144  )
         9        Nb     tau(   9) = (  0.5010761  0.5010761  0.5010761  )
        10        Nb     tau(  10) = (  0.0010761  0.0010761  0.0010761  )

     number of k points=    32
                       cart. coord. in units 2pi/alat
        k(    1) = (   0.0000000   0.0000000   0.0000000), wk =   0.0092593
        k(    2) = (  -0.0000000  -0.2039913   0.0662448), wk =   0.0555556
        k(    3) = (  -0.0000000  -0.4079827   0.1324896), wk =   0.0555556
        k(    4) = (   0.0000000   0.6119740  -0.1987344), wk =   0.0277778
        k(    5) = (  -0.1766617  -0.1019957   0.1324896), wk =   0.0555556
        k(    6) = (  -0.1766617  -0.3059870   0.1987344), wk =   0.1111111
        k(    7) = (  -0.1766617   0.7139697  -0.1324896), wk =   0.1111111
        k(    8) = (  -0.1766617   0.5099783  -0.0662448), wk =   0.1111111
        k(    9) = (  -0.1766617   0.3059870   0.0000000), wk =   0.0555556
        k(   10) = (  -0.3533234  -0.2039913   0.2649791), wk =   0.0555556
        k(   11) = (  -0.3533234   0.8159654  -0.0662448), wk =   0.1111111
        k(   12) = (  -0.3533234   0.6119740   0.0000000), wk =   0.0555556
        k(   13) = (   0.5299850   0.3059870  -0.3974687), wk =   0.0277778
        k(   14) = (  -0.0000000   0.0000000   0.1987344), wk =   0.0185185
        k(   15) = (  -0.0000000  -0.2039913   0.2649791), wk =   0.0555556
        k(   16) = (  -0.0000000   0.8159654  -0.0662448), wk =   0.0555556
        k(   17) = (  -0.0000000   0.6119740   0.0000000), wk =   0.0555556
        k(   18) = (  -0.0000000   0.4079827   0.0662448), wk =   0.0555556
        k(   19) = (  -0.1766617  -0.1019957   0.3312239), wk =   0.0555556
        k(   20) = (  -0.1766617   0.9179610   0.0000000), wk =   0.1111111
        k(   21) = (  -0.1766617   0.7139697   0.0662448), wk =   0.1111111
        k(   22) = (  -0.1766617   0.5099783   0.1324896), wk =   0.1111111
        k(   23) = (   0.7066467   0.4079827  -0.3312239), wk =   0.0555556
        k(   24) = (   0.7066467   0.2039913  -0.2649791), wk =   0.1111111
        k(   25) = (   0.7066467  -0.0000000  -0.1987344), wk =   0.0555556
        k(   26) = (   0.5299850   0.3059870  -0.1987344), wk =   0.0555556
        k(   27) = (  -0.0000000   0.0000000   0.3974687), wk =   0.0185185
        k(   28) = (  -0.0000000   1.0199567   0.0662448), wk =   0.0555556
        k(   29) = (  -0.0000000   0.8159654   0.1324896), wk =   0.0555556
        k(   30) = (   0.8833084   0.5099783  -0.2649791), wk =   0.0555556
        k(   31) = (   0.8833084   0.3059870  -0.1987344), wk =   0.0555556
        k(   32) = (   0.0000000   0.0000000  -0.5962031), wk =   0.0092593

                       cryst. coord.
        k(    1) = (   0.0000000   0.0000000   0.0000000), wk =   0.0092593
        k(    2) = (   0.0000000   0.0000000   0.1666667), wk =   0.0555556
        k(    3) = (   0.0000000   0.0000000   0.3333333), wk =   0.0555556
        k(    4) = (  -0.0000000  -0.0000000  -0.5000000), wk =   0.0277778
        k(    5) = (  -0.0000000   0.1666667   0.1666667), wk =   0.0555556
        k(    6) = (   0.0000000   0.1666667   0.3333333), wk =   0.1111111
        k(    7) = (  -0.0000000   0.1666667  -0.5000000), wk =   0.1111111
        k(    8) = (  -0.0000000   0.1666667  -0.3333333), wk =   0.1111111
        k(    9) = (  -0.0000000   0.1666667  -0.1666667), wk =   0.0555556
        k(   10) = (  -0.0000000   0.3333333   0.3333333), wk =   0.0555556
        k(   11) = (  -0.0000000   0.3333333  -0.5000000), wk =   0.1111111
        k(   12) = (  -0.0000000   0.3333333  -0.3333333), wk =   0.0555556
        k(   13) = (   0.0000000  -0.5000000  -0.5000000), wk =   0.0277778
        k(   14) = (   0.1666667   0.1666667   0.1666667), wk =   0.0185185
        k(   15) = (   0.1666667   0.1666667   0.3333333), wk =   0.0555556
        k(   16) = (   0.1666667   0.1666667  -0.5000000), wk =   0.0555556
        k(   17) = (   0.1666667   0.1666667  -0.3333333), wk =   0.0555556
        k(   18) = (   0.1666667   0.1666667  -0.1666667), wk =   0.0555556
        k(   19) = (   0.1666667   0.3333333   0.3333333), wk =   0.0555556
        k(   20) = (   0.1666667   0.3333333  -0.5000000), wk =   0.1111111
        k(   21) = (   0.1666667   0.3333333  -0.3333333), wk =   0.1111111
        k(   22) = (   0.1666667   0.3333333  -0.1666667), wk =   0.1111111
        k(   23) = (   0.1666667  -0.5000000  -0.5000000), wk =   0.0555556
        k(   24) = (   0.1666667  -0.5000000  -0.3333333), wk =   0.1111111
        k(   25) = (   0.1666667  -0.5000000  -0.1666667), wk =   0.0555556
        k(   26) = (   0.1666667  -0.3333333  -0.3333333), wk =   0.0555556
        k(   27) = (   0.3333333   0.3333333   0.3333333), wk =   0.0185185
        k(   28) = (   0.3333333   0.3333333  -0.5000000), wk =   0.0555556
        k(   29) = (   0.3333333   0.3333333  -0.3333333), wk =   0.0555556
        k(   30) = (   0.3333333  -0.5000000  -0.5000000), wk =   0.0555556
        k(   31) = (   0.3333333  -0.5000000  -0.3333333), wk =   0.0555556
        k(   32) = (  -0.5000000  -0.5000000  -0.5000000), wk =   0.0092593

     Dense  grid:   100639 G-vectors     FFT dimensions: (  72,  72,  72)

     Smooth grid:    46855 G-vectors     FFT dimensions: (  54,  54,  54)

     Dynamical RAM for                 wfc:       3.03 MB

     Dynamical RAM for     wfc (w. buffer):     100.03 MB

     Dynamical RAM for           str. fact:       4.61 MB

     Dynamical RAM for           local pot:       0.00 MB

     Dynamical RAM for          nlocal pot:       9.09 MB

     Dynamical RAM for                qrad:       4.82 MB

     Dynamical RAM for          rho,v,vnew:      13.15 MB

     Dynamical RAM for               rhoin:       4.38 MB

     Dynamical RAM for            rho*nmix:      24.57 MB

     Dynamical RAM for           G-vectors:       6.12 MB

     Dynamical RAM for          h,s,v(r/c):       0.21 MB

     Dynamical RAM for          <psi|beta>:       0.05 MB

     Dynamical RAM for                 psi:       6.06 MB

     Dynamical RAM for                hpsi:       6.06 MB

     Dynamical RAM for                spsi:       6.06 MB

     Dynamical RAM for      wfcinit/wfcrot:       6.09 MB

     Dynamical RAM for           addusdens:     294.84 MB

     Dynamical RAM for          addusforce:     310.99 MB

     Dynamical RAM for         addusstress:     308.66 MB

     Estimated static dynamical RAM per process >     162.58 MB

     Estimated max dynamical RAM per process >     498.14 MB

     Check: negative core charge=   -0.000005

     Initial potential from superposition of free atoms

     starting charge      67.0945, renormalised to      68.0000
     Starting wfcs are   54 randomized atomic wfcs
     Checking if some PAW data can be deallocated... 

     total cpu time spent up to now is        1.1 secs

     per-process dynamical memory:   563.0 Mb

     Self-consistent Calculation
[tb_dev] Currently allocated     1.86E+00 Mbytes, locked:    0 /   3
[tb_pin] Currently allocated     0.00E+00 Mbytes, locked:    0 /   0

     iteration #  1     ecut=    60.00 Ry     beta= 0.70
     Davidson diagonalization with overlap

---- Real-time Memory Report at c_bands before calling an iterative solver
           991 MiB given to the printing process from OS
           549 MiB allocation reported by mallinfo(arena+hblkhd)
       1785582 MiB available memory on the node where the printing process lives
     GPU memory used/free/total (MiB): 2295 / 180346 / 182642
------------------
     ethr =  1.00E-02,  avg # of iterations =  1.0

     total cpu time spent up to now is        1.5 secs

     total energy              =    -934.36296376 Ry
     estimated scf accuracy    <       4.57564593 Ry
[tb_dev] Currently allocated     0.00E+00 Mbytes, locked:    0 /   0
[tb_pin] Currently allocated     0.00E+00 Mbytes, locked:    0 /   0

     iteration #  2     ecut=    60.00 Ry     beta= 0.70
     Davidson diagonalization with overlap

---- Real-time Memory Report at c_bands before calling an iterative solver
          1039 MiB given to the printing process from OS
           627 MiB allocation reported by mallinfo(arena+hblkhd)
       1785549 MiB available memory on the node where the printing process lives
     GPU memory used/free/total (MiB): 2295 / 180346 / 182642
------------------
     ethr =  6.73E-03,  avg # of iterations =  8.7

     total cpu time spent up to now is        2.7 secs

     total energy              =    -933.41608756 Ry
     estimated scf accuracy    <      18.50063587 Ry
[tb_dev] Currently allocated     0.00E+00 Mbytes, locked:    0 /   0
[tb_pin] Currently allocated     0.00E+00 Mbytes, locked:    0 /   0

     iteration #  3     ecut=    60.00 Ry     beta= 0.70
     Davidson diagonalization with overlap

---- Real-time Memory Report at c_bands before calling an iterative solver
          1044 MiB given to the printing process from OS
           631 MiB allocation reported by mallinfo(arena+hblkhd)
       1785549 MiB available memory on the node where the printing process lives
     GPU memory used/free/total (MiB): 2297 / 180344 / 182642
------------------
     ethr =  6.73E-03,  avg # of iterations =  6.5

     total cpu time spent up to now is        3.6 secs

     total energy              =    -936.74930916 Ry
     estimated scf accuracy    <       0.07499297 Ry
[tb_dev] Currently allocated     0.00E+00 Mbytes, locked:    0 /   0
[tb_pin] Currently allocated     0.00E+00 Mbytes, locked:    0 /   0

     iteration #  4     ecut=    60.00 Ry     beta= 0.70
     Davidson diagonalization with overlap

---- Real-time Memory Report at c_bands before calling an iterative solver
          1046 MiB given to the printing process from OS
           633 MiB allocation reported by mallinfo(arena+hblkhd)
       1785550 MiB available memory on the node where the printing process lives
     GPU memory used/free/total (MiB): 2297 / 180344 / 182642
------------------
     ethr =  1.10E-04,  avg # of iterations =  7.3

     total cpu time spent up to now is        4.5 secs

     total energy              =    -936.67876967 Ry
     estimated scf accuracy    <       0.31114453 Ry
[tb_dev] Currently allocated     0.00E+00 Mbytes, locked:    0 /   0
[tb_pin] Currently allocated     0.00E+00 Mbytes, locked:    0 /   0

     iteration #  5     ecut=    60.00 Ry     beta= 0.70
     Davidson diagonalization with overlap

---- Real-time Memory Report at c_bands before calling an iterative solver
          1048 MiB given to the printing process from OS
           622 MiB allocation reported by mallinfo(arena+hblkhd)
       1785574 MiB available memory on the node where the printing process lives
     GPU memory used/free/total (MiB): 2297 / 180344 / 182642
------------------
     ethr =  1.10E-04,  avg # of iterations =  8.2

     total cpu time spent up to now is        5.6 secs

     total energy              =    -936.78471246 Ry
     estimated scf accuracy    <       0.65762373 Ry
[tb_dev] Currently allocated     0.00E+00 Mbytes, locked:    0 /   0
[tb_pin] Currently allocated     0.00E+00 Mbytes, locked:    0 /   0

     iteration #  6     ecut=    60.00 Ry     beta= 0.70
     Davidson diagonalization with overlap

---- Real-time Memory Report at c_bands before calling an iterative solver
          1051 MiB given to the printing process from OS
           635 MiB allocation reported by mallinfo(arena+hblkhd)
       1785542 MiB available memory on the node where the printing process lives
     GPU memory used/free/total (MiB): 2297 / 180344 / 182642
------------------
     ethr =  1.10E-04,  avg # of iterations =  6.1

     total cpu time spent up to now is        6.4 secs

     total energy              =    -936.81273838 Ry
     estimated scf accuracy    <       0.06897879 Ry
[tb_dev] Currently allocated     0.00E+00 Mbytes, locked:    0 /   0
[tb_pin] Currently allocated     0.00E+00 Mbytes, locked:    0 /   0

     iteration #  7     ecut=    60.00 Ry     beta= 0.70
     Davidson diagonalization with overlap

---- Real-time Memory Report at c_bands before calling an iterative solver
          1053 MiB given to the printing process from OS
           637 MiB allocation reported by mallinfo(arena+hblkhd)
       1785544 MiB available memory on the node where the printing process lives
     GPU memory used/free/total (MiB): 2297 / 180344 / 182642
------------------
     ethr =  1.01E-04,  avg # of iterations =  4.3

     total cpu time spent up to now is        7.1 secs

     total energy              =    -936.82479698 Ry
     estimated scf accuracy    <       0.00276330 Ry
[tb_dev] Currently allocated     0.00E+00 Mbytes, locked:    0 /   0
[tb_pin] Currently allocated     0.00E+00 Mbytes, locked:    0 /   0

     iteration #  8     ecut=    60.00 Ry     beta= 0.70
     Davidson diagonalization with overlap

---- Real-time Memory Report at c_bands before calling an iterative solver
          1053 MiB given to the printing process from OS
           639 MiB allocation reported by mallinfo(arena+hblkhd)
       1785543 MiB available memory on the node where the printing process lives
     GPU memory used/free/total (MiB): 2297 / 180344 / 182642
------------------
     ethr =  4.06E-06,  avg # of iterations =  7.7

     total cpu time spent up to now is        8.1 secs

     total energy              =    -936.82899395 Ry
     estimated scf accuracy    <       0.00486583 Ry
[tb_dev] Currently allocated     0.00E+00 Mbytes, locked:    0 /   0
[tb_pin] Currently allocated     0.00E+00 Mbytes, locked:    0 /   0

     iteration #  9     ecut=    60.00 Ry     beta= 0.70
     Davidson diagonalization with overlap

---- Real-time Memory Report at c_bands before calling an iterative solver
          1054 MiB given to the printing process from OS
           641 MiB allocation reported by mallinfo(arena+hblkhd)
       1785518 MiB available memory on the node where the printing process lives
     GPU memory used/free/total (MiB): 2297 / 180344 / 182642
------------------
     ethr =  4.06E-06,  avg # of iterations =  1.0

     total cpu time spent up to now is        8.5 secs

     total energy              =    -936.82809514 Ry
     estimated scf accuracy    <       0.00272027 Ry
[tb_dev] Currently allocated     0.00E+00 Mbytes, locked:    0 /   0
[tb_pin] Currently allocated     0.00E+00 Mbytes, locked:    0 /   0

     iteration # 10     ecut=    60.00 Ry     beta= 0.70
     Davidson diagonalization with overlap

---- Real-time Memory Report at c_bands before calling an iterative solver
          1057 MiB given to the printing process from OS
           643 MiB allocation reported by mallinfo(arena+hblkhd)
       1785517 MiB available memory on the node where the printing process lives
     GPU memory used/free/total (MiB): 2297 / 180344 / 182642
------------------
     ethr =  4.00E-06,  avg # of iterations =  4.5

     total cpu time spent up to now is        9.1 secs

     total energy              =    -936.82855899 Ry
     estimated scf accuracy    <       0.00007050 Ry
[tb_dev] Currently allocated     0.00E+00 Mbytes, locked:    0 /   0
[tb_pin] Currently allocated     0.00E+00 Mbytes, locked:    0 /   0

     iteration # 11     ecut=    60.00 Ry     beta= 0.70
     Davidson diagonalization with overlap

---- Real-time Memory Report at c_bands before calling an iterative solver
          1057 MiB given to the printing process from OS
           643 MiB allocation reported by mallinfo(arena+hblkhd)
       1785517 MiB available memory on the node where the printing process lives
     GPU memory used/free/total (MiB): 2297 / 180344 / 182642
------------------
     ethr =  1.04E-07,  avg # of iterations =  9.1

     total cpu time spent up to now is       10.3 secs

     total energy              =    -936.82856637 Ry
     estimated scf accuracy    <       0.00076129 Ry
[tb_dev] Currently allocated     0.00E+00 Mbytes, locked:    0 /   0
[tb_pin] Currently allocated     0.00E+00 Mbytes, locked:    0 /   0

     iteration # 12     ecut=    60.00 Ry     beta= 0.70
     Davidson diagonalization with overlap

---- Real-time Memory Report at c_bands before calling an iterative solver
          1057 MiB given to the printing process from OS
           643 MiB allocation reported by mallinfo(arena+hblkhd)
       1785511 MiB available memory on the node where the printing process lives
     GPU memory used/free/total (MiB): 2297 / 180344 / 182642
------------------
     ethr =  1.04E-07,  avg # of iterations =  7.1

     total cpu time spent up to now is       11.2 secs

     total energy              =    -936.82871167 Ry
     estimated scf accuracy    <       0.00000018 Ry
[tb_dev] Currently allocated     0.00E+00 Mbytes, locked:    0 /   0
[tb_pin] Currently allocated     0.00E+00 Mbytes, locked:    0 /   0

     iteration # 13     ecut=    60.00 Ry     beta= 0.70
     Davidson diagonalization with overlap

---- Real-time Memory Report at c_bands before calling an iterative solver
          1062 MiB given to the printing process from OS
           643 MiB allocation reported by mallinfo(arena+hblkhd)
       1785493 MiB available memory on the node where the printing process lives
     GPU memory used/free/total (MiB): 2297 / 180344 / 182642
------------------
     ethr =  2.65E-10,  avg # of iterations = 16.4

     total cpu time spent up to now is       13.1 secs

     total energy              =    -936.82871435 Ry
     estimated scf accuracy    <       0.00002483 Ry
[tb_dev] Currently allocated     0.00E+00 Mbytes, locked:    0 /   0
[tb_pin] Currently allocated     0.00E+00 Mbytes, locked:    0 /   0

     iteration # 14     ecut=    60.00 Ry     beta= 0.70
     Davidson diagonalization with overlap

---- Real-time Memory Report at c_bands before calling an iterative solver
          1062 MiB given to the printing process from OS
           643 MiB allocation reported by mallinfo(arena+hblkhd)
       1785485 MiB available memory on the node where the printing process lives
     GPU memory used/free/total (MiB): 2297 / 180344 / 182642
------------------
     ethr =  2.65E-10,  avg # of iterations =  7.6

     total cpu time spent up to now is       14.1 secs

     total energy              =    -936.82871171 Ry
     estimated scf accuracy    <       0.00000956 Ry
[tb_dev] Currently allocated     0.00E+00 Mbytes, locked:    0 /   0
[tb_pin] Currently allocated     0.00E+00 Mbytes, locked:    0 /   0

     iteration # 15     ecut=    60.00 Ry     beta= 0.70
     Davidson diagonalization with overlap

---- Real-time Memory Report at c_bands before calling an iterative solver
          1062 MiB given to the printing process from OS
           643 MiB allocation reported by mallinfo(arena+hblkhd)
       1785486 MiB available memory on the node where the printing process lives
     GPU memory used/free/total (MiB): 2297 / 180344 / 182642
------------------
     ethr =  2.65E-10,  avg # of iterations =  8.9

     total cpu time spent up to now is       15.2 secs

     total energy              =    -936.82871306 Ry
     estimated scf accuracy    <       0.00000012 Ry
[tb_dev] Currently allocated     0.00E+00 Mbytes, locked:    0 /   0
[tb_pin] Currently allocated     0.00E+00 Mbytes, locked:    0 /   0

     iteration # 16     ecut=    60.00 Ry     beta= 0.70
     Davidson diagonalization with overlap

---- Real-time Memory Report at c_bands before calling an iterative solver
          1062 MiB given to the printing process from OS
           643 MiB allocation reported by mallinfo(arena+hblkhd)
       1785491 MiB available memory on the node where the printing process lives
     GPU memory used/free/total (MiB): 2297 / 180344 / 182642
------------------
     ethr =  1.83E-10,  avg # of iterations =  1.0

     total cpu time spent up to now is       15.7 secs

     total energy              =    -936.82871302 Ry
     estimated scf accuracy    <       0.00000020 Ry
[tb_dev] Currently allocated     0.00E+00 Mbytes, locked:    0 /   0
[tb_pin] Currently allocated     0.00E+00 Mbytes, locked:    0 /   0

     iteration # 17     ecut=    60.00 Ry     beta= 0.70
     Davidson diagonalization with overlap

---- Real-time Memory Report at c_bands before calling an iterative solver
          1062 MiB given to the printing process from OS
           643 MiB allocation reported by mallinfo(arena+hblkhd)
       1785497 MiB available memory on the node where the printing process lives
     GPU memory used/free/total (MiB): 2297 / 180344 / 182642
------------------
     ethr =  1.83E-10,  avg # of iterations =  1.9

     total cpu time spent up to now is       16.1 secs

     total energy              =    -936.82871301 Ry
     estimated scf accuracy    <       0.00000010 Ry
[tb_dev] Currently allocated     0.00E+00 Mbytes, locked:    0 /   0
[tb_pin] Currently allocated     0.00E+00 Mbytes, locked:    0 /   0

     iteration # 18     ecut=    60.00 Ry     beta= 0.70
     Davidson diagonalization with overlap

---- Real-time Memory Report at c_bands before calling an iterative solver
          1062 MiB given to the printing process from OS
           643 MiB allocation reported by mallinfo(arena+hblkhd)
       1785498 MiB available memory on the node where the printing process lives
     GPU memory used/free/total (MiB): 2297 / 180344 / 182642
------------------
     ethr =  1.42E-10,  avg # of iterations =  2.3

     total cpu time spent up to now is       16.6 secs

     total energy              =    -936.82871301 Ry
     estimated scf accuracy    <       0.00000005 Ry
[tb_dev] Currently allocated     0.00E+00 Mbytes, locked:    0 /   0
[tb_pin] Currently allocated     0.00E+00 Mbytes, locked:    0 /   0

     iteration # 19     ecut=    60.00 Ry     beta= 0.70
     Davidson diagonalization with overlap

---- Real-time Memory Report at c_bands before calling an iterative solver
          1062 MiB given to the printing process from OS
           643 MiB allocation reported by mallinfo(arena+hblkhd)
       1785498 MiB available memory on the node where the printing process lives
     GPU memory used/free/total (MiB): 2297 / 180344 / 182642
------------------
     ethr =  7.43E-11,  avg # of iterations =  2.0

     total cpu time spent up to now is       17.1 secs

     total energy              =    -936.82871300 Ry
     estimated scf accuracy    <       0.00000004 Ry
[tb_dev] Currently allocated     0.00E+00 Mbytes, locked:    0 /   0
[tb_pin] Currently allocated     0.00E+00 Mbytes, locked:    0 /   0

     iteration # 20     ecut=    60.00 Ry     beta= 0.70
     Davidson diagonalization with overlap

---- Real-time Memory Report at c_bands before calling an iterative solver
          1062 MiB given to the printing process from OS
           643 MiB allocation reported by mallinfo(arena+hblkhd)
       1785452 MiB available memory on the node where the printing process lives
     GPU memory used/free/total (MiB): 2297 / 180344 / 182642
------------------
     ethr =  5.91E-11,  avg # of iterations =  5.0

     total cpu time spent up to now is       17.8 secs

     total energy              =    -936.82871302 Ry
     estimated scf accuracy    <          1.6E-09 Ry
[tb_dev] Currently allocated     0.00E+00 Mbytes, locked:    0 /   0
[tb_pin] Currently allocated     0.00E+00 Mbytes, locked:    0 /   0

     iteration # 21     ecut=    60.00 Ry     beta= 0.70
     Davidson diagonalization with overlap

---- Real-time Memory Report at c_bands before calling an iterative solver
          1062 MiB given to the printing process from OS
           643 MiB allocation reported by mallinfo(arena+hblkhd)
       1785451 MiB available memory on the node where the printing process lives
     GPU memory used/free/total (MiB): 2297 / 180344 / 182642
------------------
     ethr =  2.35E-12,  avg # of iterations =  6.1

     total cpu time spent up to now is       18.6 secs

     total energy              =    -936.82871302 Ry
     estimated scf accuracy    <          2.4E-09 Ry
[tb_dev] Currently allocated     0.00E+00 Mbytes, locked:    0 /   0
[tb_pin] Currently allocated     0.00E+00 Mbytes, locked:    0 /   0

     iteration # 22     ecut=    60.00 Ry     beta= 0.70
     Davidson diagonalization with overlap

---- Real-time Memory Report at c_bands before calling an iterative solver
          1062 MiB given to the printing process from OS
           643 MiB allocation reported by mallinfo(arena+hblkhd)
       1785452 MiB available memory on the node where the printing process lives
     GPU memory used/free/total (MiB): 2297 / 180344 / 182642
------------------
     ethr =  2.35E-12,  avg # of iterations =  1.0

     total cpu time spent up to now is       19.0 secs

     total energy              =    -936.82871302 Ry
     estimated scf accuracy    <          1.9E-09 Ry
[tb_dev] Currently allocated     0.00E+00 Mbytes, locked:    0 /   0
[tb_pin] Currently allocated     0.00E+00 Mbytes, locked:    0 /   0

     iteration # 23     ecut=    60.00 Ry     beta= 0.70
     Davidson diagonalization with overlap

---- Real-time Memory Report at c_bands before calling an iterative solver
          1062 MiB given to the printing process from OS
           643 MiB allocation reported by mallinfo(arena+hblkhd)
       1785430 MiB available memory on the node where the printing process lives
     GPU memory used/free/total (MiB): 2297 / 180344 / 182642
------------------
     ethr =  2.35E-12,  avg # of iterations =  1.7

     total cpu time spent up to now is       19.5 secs

     total energy              =    -936.82871302 Ry
     estimated scf accuracy    <          7.9E-10 Ry
[tb_dev] Currently allocated     0.00E+00 Mbytes, locked:    0 /   0
[tb_pin] Currently allocated     0.00E+00 Mbytes, locked:    0 /   0

     iteration # 24     ecut=    60.00 Ry     beta= 0.70
     Davidson diagonalization with overlap

---- Real-time Memory Report at c_bands before calling an iterative solver
          1062 MiB given to the printing process from OS
           643 MiB allocation reported by mallinfo(arena+hblkhd)
       1785429 MiB available memory on the node where the printing process lives
     GPU memory used/free/total (MiB): 2297 / 180344 / 182642
------------------
     ethr =  1.17E-12,  avg # of iterations =  2.5

     total cpu time spent up to now is       20.0 secs

     total energy              =    -936.82871302 Ry
     estimated scf accuracy    <          3.3E-10 Ry
[tb_dev] Currently allocated     0.00E+00 Mbytes, locked:    0 /   0
[tb_pin] Currently allocated     0.00E+00 Mbytes, locked:    0 /   0

     iteration # 25     ecut=    60.00 Ry     beta= 0.70
     Davidson diagonalization with overlap

---- Real-time Memory Report at c_bands before calling an iterative solver
          1062 MiB given to the printing process from OS
           643 MiB allocation reported by mallinfo(arena+hblkhd)
       1785429 MiB available memory on the node where the printing process lives
     GPU memory used/free/total (MiB): 2297 / 180344 / 182642
------------------
     ethr =  4.90E-13,  avg # of iterations =  5.2

     total cpu time spent up to now is       20.8 secs

     total energy              =    -936.82871302 Ry
     estimated scf accuracy    <          8.4E-11 Ry
[tb_dev] Currently allocated     0.00E+00 Mbytes, locked:    0 /   0
[tb_pin] Currently allocated     0.00E+00 Mbytes, locked:    0 /   0

     iteration # 26     ecut=    60.00 Ry     beta= 0.70
     Davidson diagonalization with overlap

---- Real-time Memory Report at c_bands before calling an iterative solver
          1062 MiB given to the printing process from OS
           643 MiB allocation reported by mallinfo(arena+hblkhd)
       1785429 MiB available memory on the node where the printing process lives
     GPU memory used/free/total (MiB): 2297 / 180344 / 182642
------------------
     ethr =  1.23E-13,  avg # of iterations =  1.6

     total cpu time spent up to now is       21.2 secs

     total energy              =    -936.82871302 Ry
     estimated scf accuracy    <          4.4E-11 Ry
[tb_dev] Currently allocated     0.00E+00 Mbytes, locked:    0 /   0
[tb_pin] Currently allocated     0.00E+00 Mbytes, locked:    0 /   0

     iteration # 27     ecut=    60.00 Ry     beta= 0.70
     Davidson diagonalization with overlap

---- Real-time Memory Report at c_bands before calling an iterative solver
          1062 MiB given to the printing process from OS
           643 MiB allocation reported by mallinfo(arena+hblkhd)
       1785429 MiB available memory on the node where the printing process lives
     GPU memory used/free/total (MiB): 2297 / 180344 / 182642
------------------
     ethr =  1.00E-13,  avg # of iterations =  1.2

     total cpu time spent up to now is       21.6 secs

     total energy              =    -936.82871302 Ry
     estimated scf accuracy    <          7.0E-11 Ry
[tb_dev] Currently allocated     0.00E+00 Mbytes, locked:    0 /   0
[tb_pin] Currently allocated     0.00E+00 Mbytes, locked:    0 /   0

     iteration # 28     ecut=    60.00 Ry     beta= 0.70
     Davidson diagonalization with overlap

---- Real-time Memory Report at c_bands before calling an iterative solver
          1062 MiB given to the printing process from OS
           643 MiB allocation reported by mallinfo(arena+hblkhd)
       1785427 MiB available memory on the node where the printing process lives
     GPU memory used/free/total (MiB): 2297 / 180344 / 182642
------------------
     ethr =  1.00E-13,  avg # of iterations =  6.4

     total cpu time spent up to now is       22.5 secs

     total energy              =    -936.82871302 Ry
     estimated scf accuracy    <          7.1E-10 Ry
[tb_dev] Currently allocated     0.00E+00 Mbytes, locked:    0 /   0
[tb_pin] Currently allocated     0.00E+00 Mbytes, locked:    0 /   0

     iteration # 29     ecut=    60.00 Ry     beta= 0.70
     Davidson diagonalization with overlap

---- Real-time Memory Report at c_bands before calling an iterative solver
          1062 MiB given to the printing process from OS
           643 MiB allocation reported by mallinfo(arena+hblkhd)
       1785317 MiB available memory on the node where the printing process lives
     GPU memory used/free/total (MiB): 2297 / 180344 / 182642
------------------
     ethr =  1.00E-13,  avg # of iterations =  5.9

     total cpu time spent up to now is       23.3 secs

     total energy              =    -936.82871302 Ry
     estimated scf accuracy    <          1.6E-10 Ry
[tb_dev] Currently allocated     0.00E+00 Mbytes, locked:    0 /   0
[tb_pin] Currently allocated     0.00E+00 Mbytes, locked:    0 /   0

     iteration # 30     ecut=    60.00 Ry     beta= 0.70
     Davidson diagonalization with overlap

---- Real-time Memory Report at c_bands before calling an iterative solver
          1062 MiB given to the printing process from OS
           643 MiB allocation reported by mallinfo(arena+hblkhd)
       1785247 MiB available memory on the node where the printing process lives
     GPU memory used/free/total (MiB): 2297 / 180344 / 182642
------------------
     ethr =  1.00E-13,  avg # of iterations =  4.7

     total cpu time spent up to now is       24.0 secs

     total energy              =    -936.82871302 Ry
     estimated scf accuracy    <          2.6E-11 Ry
[tb_dev] Currently allocated     0.00E+00 Mbytes, locked:    0 /   0
[tb_pin] Currently allocated     0.00E+00 Mbytes, locked:    0 /   0

     iteration # 31     ecut=    60.00 Ry     beta= 0.70
     Davidson diagonalization with overlap

---- Real-time Memory Report at c_bands before calling an iterative solver
          1062 MiB given to the printing process from OS
           643 MiB allocation reported by mallinfo(arena+hblkhd)
       1785367 MiB available memory on the node where the printing process lives
     GPU memory used/free/total (MiB): 2297 / 180344 / 182642
------------------
     ethr =  1.00E-13,  avg # of iterations =  1.0

     total cpu time spent up to now is       24.4 secs

     total energy              =    -936.82871302 Ry
     estimated scf accuracy    <          1.9E-11 Ry
[tb_dev] Currently allocated     0.00E+00 Mbytes, locked:    0 /   0
[tb_pin] Currently allocated     0.00E+00 Mbytes, locked:    0 /   0

     iteration # 32     ecut=    60.00 Ry     beta= 0.70
     Davidson diagonalization with overlap

---- Real-time Memory Report at c_bands before calling an iterative solver
          1062 MiB given to the printing process from OS
           643 MiB allocation reported by mallinfo(arena+hblkhd)
       1785354 MiB available memory on the node where the printing process lives
     GPU memory used/free/total (MiB): 2297 / 180344 / 182642
------------------
     ethr =  1.00E-13,  avg # of iterations =  1.0

     total cpu time spent up to now is       24.8 secs

     total energy              =    -936.82871302 Ry
     estimated scf accuracy    <          1.1E-11 Ry
[tb_dev] Currently allocated     0.00E+00 Mbytes, locked:    0 /   0
[tb_pin] Currently allocated     0.00E+00 Mbytes, locked:    0 /   0

     iteration # 33     ecut=    60.00 Ry     beta= 0.70
     Davidson diagonalization with overlap

---- Real-time Memory Report at c_bands before calling an iterative solver
          1062 MiB given to the printing process from OS
           643 MiB allocation reported by mallinfo(arena+hblkhd)
       1785356 MiB available memory on the node where the printing process lives
     GPU memory used/free/total (MiB): 2297 / 180344 / 182642
------------------
     ethr =  1.00E-13,  avg # of iterations =  1.0

     total cpu time spent up to now is       25.3 secs

     total energy              =    -936.82871302 Ry
     estimated scf accuracy    <          6.1E-12 Ry
[tb_dev] Currently allocated     0.00E+00 Mbytes, locked:    0 /   0
[tb_pin] Currently allocated     0.00E+00 Mbytes, locked:    0 /   0

     iteration # 34     ecut=    60.00 Ry     beta= 0.70
     Davidson diagonalization with overlap

---- Real-time Memory Report at c_bands before calling an iterative solver
          1062 MiB given to the printing process from OS
           643 MiB allocation reported by mallinfo(arena+hblkhd)
       1785353 MiB available memory on the node where the printing process lives
     GPU memory used/free/total (MiB): 2297 / 180344 / 182642
------------------
     ethr =  1.00E-13,  avg # of iterations =  1.0

     total cpu time spent up to now is       25.7 secs

     total energy              =    -936.82871302 Ry
     estimated scf accuracy    <          1.1E-12 Ry
[tb_dev] Currently allocated     0.00E+00 Mbytes, locked:    0 /   0
[tb_pin] Currently allocated     0.00E+00 Mbytes, locked:    0 /   0

     iteration # 35     ecut=    60.00 Ry     beta= 0.70
     Davidson diagonalization with overlap

---- Real-time Memory Report at c_bands before calling an iterative solver
          1062 MiB given to the printing process from OS
           643 MiB allocation reported by mallinfo(arena+hblkhd)
       1785348 MiB available memory on the node where the printing process lives
     GPU memory used/free/total (MiB): 2297 / 180344 / 182642
------------------
     ethr =  1.00E-13,  avg # of iterations =  1.0

     total cpu time spent up to now is       26.1 secs

     End of self-consistent calculation

          k = 0.0000 0.0000 0.0000 (  5817 PWs)   bands (ev):

   -47.5510 -47.5384 -35.2319 -35.2295 -23.8223 -23.8223 -23.7648 -23.6848
   -23.6848 -23.6068 -10.0702  -9.4138  -9.4138  -8.5682  -8.4033  -8.4033
     2.3664   2.3664   2.5689   2.6636   2.6636   3.4383   4.6293   4.6293
     4.6365   5.4945   5.9460   5.9460   6.0946   6.0946   6.1271   6.2375
     6.7104   6.7104

     occupation numbers 
     1.0000   1.0000   1.0000   1.0000   1.0000   1.0000   1.0000   1.0000
     1.0000   1.0000   1.0000   1.0000   1.0000   1.0000   1.0000   1.0000
     1.0000   1.0000   1.0000   1.0000   1.0000   1.0000   1.0000   1.0000
     1.0000   1.0000   1.0000   1.0000   1.0000   1.0000   1.0000   1.0000
     1.0000   1.0000

          k =-0.0000-0.2040 0.0662 (  5826 PWs)   bands (ev):

   -47.5501 -47.5392 -35.2318 -35.2297 -23.8146 -23.8135 -23.7540 -23.6953
   -23.6945 -23.6173  -9.9687  -9.3597  -9.3559  -8.6406  -8.5018  -8.4819
     2.3300   2.4200   2.7462   2.8529   2.8998   3.5033   4.3263   4.4101
     4.4684   5.4637   5.6765   5.9416   5.9489   6.2176   6.2689   6.3400
     6.5835   6.6360

     occupation numbers 
     1.0000   1.0000   1.0000   1.0000   1.0000   1.0000   1.0000   1.0000
     1.0000   1.0000   1.0000   1.0000   1.0000   1.0000   1.0000   1.0000
     1.0000   1.0000   1.0000   1.0000   1.0000   1.0000   1.0000   1.0000
     1.0000   1.0000   1.0000   1.0000   1.0000   1.0000   1.0000   1.0000
     1.0000   1.0000

          k =-0.0000-0.4080 0.1325 (  5840 PWs)   bands (ev):

   -47.5478 -47.5415 -35.2314 -35.2302 -23.7922 -23.7892 -23.7248 -23.7231
   -23.7204 -23.6459  -9.6888  -9.2158  -9.1964  -8.8717  -8.7240  -8.6834
     2.4862   2.6362   3.0005   3.3292   3.3994   3.6356   3.6880   4.0484
     4.2439   4.9518   5.2413   5.5383   6.1590   6.2771   6.2956   6.3929
     6.5176   6.6360

     occupation numbers 
     1.0000   1.0000   1.0000   1.0000   1.0000   1.0000   1.0000   1.0000
     1.0000   1.0000   1.0000   1.0000   1.0000   1.0000   1.0000   1.0000
     1.0000   1.0000   1.0000   1.0000   1.0000   1.0000   1.0000   1.0000
     1.0000   1.0000   1.0000   1.0000   1.0000   1.0000   1.0000   1.0000
     1.0000   1.0000

          k = 0.0000 0.6120-0.1987 (  5866 PWs)   bands (ev):

   -47.5447 -47.5447 -35.2308 -35.2308 -23.7590 -23.7590 -23.7553 -23.7553
   -23.6852 -23.6852  -9.3111  -9.3111  -8.9897  -8.9897  -8.9072  -8.9072
     2.8360   2.8360   3.0988   3.0988   3.5344   3.5344   4.0033   4.0033
     4.4822   4.4822   4.8796   4.8796   6.3348   6.3348   6.4254   6.4254
     6.5115   6.5115

     occupation numbers 
     1.0000   1.0000   1.0000   1.0000   1.0000   1.0000   1.0000   1.0000
     1.0000   1.0000   1.0000   1.0000   1.0000   1.0000   1.0000   1.0000
     1.0000   1.0000   1.0000   1.0000   1.0000   1.0000   1.0000   1.0000
     1.0000   1.0000   1.0000   1.0000   1.0000   1.0000   1.0000   1.0000
     1.0000   1.0000

          k =-0.1767-0.1020 0.1325 (  5838 PWs)   bands (ev):

   -47.5499 -47.5394 -35.2317 -35.2297 -23.8246 -23.8061 -23.7444 -23.7154
   -23.6831 -23.6157  -9.9589  -9.3954  -9.2729  -8.7449  -8.5013  -8.4387
     2.3505   2.4365   2.6192   2.9443   2.9722   3.6557   3.9330   4.5959
     4.6457   5.4630   5.6159   5.8389   6.0189   6.0250   6.1721   6.3369
     6.6020   6.6483

     occupation numbers 
     1.0000   1.0000   1.0000   1.0000   1.0000   1.0000   1.0000   1.0000
     1.0000   1.0000   1.0000   1.0000   1.0000   1.0000   1.0000   1.0000
     1.0000   1.0000   1.0000   1.0000   1.0000   1.0000   1.0000   1.0000
     1.0000   1.0000   1.0000   1.0000   1.0000   1.0000   1.0000   1.0000
     1.0000   1.0000

          k =-0.1767-0.3060 0.1987 (  5834 PWs)   bands (ev):

   -47.5483 -47.5410 -35.2315 -35.2301 -23.8182 -23.7919 -23.7507 -23.7119
   -23.6920 -23.6290  -9.7910  -9.3243  -9.1051  -8.9754  -8.6005  -8.5540
     2.3144   2.5719   2.9225   3.1300   3.2884   3.4963   3.9942   4.2106
     4.5837   5.1300   5.4321   5.7773   5.8849   6.0283   6.1699   6.3733
     6.4814   6.6370

     occupation numbers 
     1.0000   1.0000   1.0000   1.0000   1.0000   1.0000   1.0000   1.0000
     1.0000   1.0000   1.0000   1.0000   1.0000   1.0000   1.0000   1.0000
     1.0000   1.0000   1.0000   1.0000   1.0000   1.0000   1.0000   1.0000
     1.0000   1.0000   1.0000   1.0000   1.0000   1.0000   1.0000   1.0000
     1.0000   1.0000

          k =-0.1767 0.7140-0.1325 (  5841 PWs)   bands (ev):

   -47.5457 -47.5436 -35.2310 -35.2306 -23.7957 -23.7860 -23.7646 -23.7189
   -23.6747 -23.6578  -9.4975  -9.3090  -9.1591  -8.8386  -8.8215  -8.7594
     2.4899   2.6839   2.9081   3.3560   3.5605   3.6330   3.8606   4.1428
     4.3471   4.7356   5.1448   5.4841   5.9705   6.1884   6.2221   6.3184
     6.4963   6.5878

     occupation numbers 
     1.0000   1.0000   1.0000   1.0000   1.0000   1.0000   1.0000   1.0000
     1.0000   1.0000   1.0000   1.0000   1.0000   1.0000   1.0000   1.0000
     1.0000   1.0000   1.0000   1.0000   1.0000   1.0000   1.0000   1.0000
     1.0000   1.0000   1.0000   1.0000   1.0000   1.0000   1.0000   1.0000
     1.0000   1.0000

          k =-0.1767 0.5100-0.0662 (  5840 PWs)   bands (ev):

   -47.5465 -47.5429 -35.2311 -35.2304 -23.8106 -23.7614 -23.7547 -23.7300
   -23.6960 -23.6448  -9.5931  -9.1797  -9.0935  -8.9881  -8.9134  -8.6133
     2.4124   2.8524   2.9809   3.1057   3.3031   3.6988   3.9339   4.1402
     4.4366   4.8547   5.0967   5.6707   5.8836   6.0458   6.2814   6.4323
     6.4947   6.6175

     occupation numbers 
     1.0000   1.0000   1.0000   1.0000   1.0000   1.0000   1.0000   1.0000
     1.0000   1.0000   1.0000   1.0000   1.0000   1.0000   1.0000   1.0000
     1.0000   1.0000   1.0000   1.0000   1.0000   1.0000   1.0000   1.0000
     1.0000   1.0000   1.0000   1.0000   1.0000   1.0000   1.0000   1.0000
     1.0000   1.0000

          k =-0.1767 0.3060 0.0000 (  5824 PWs)   bands (ev):

   -47.5488 -47.5405 -35.2316 -35.2299 -23.8188 -23.7893 -23.7329 -23.7242
   -23.7010 -23.6269  -9.8309  -9.3109  -9.2184  -8.7989  -8.6907  -8.4931
     2.3398   2.5447   2.8382   2.9653   3.3321   3.6689   3.8043   4.0262
     4.6992   5.3000   5.5543   5.7427   5.9981   6.0837   6.2647   6.3952
     6.4616   6.6664

     occupation numbers 
     1.0000   1.0000   1.0000   1.0000   1.0000   1.0000   1.0000   1.0000
     1.0000   1.0000   1.0000   1.0000   1.0000   1.0000   1.0000   1.0000
     1.0000   1.0000   1.0000   1.0000   1.0000   1.0000   1.0000   1.0000
     1.0000   1.0000   1.0000   1.0000   1.0000   1.0000   1.0000   1.0000
     1.0000   1.0000

          k =-0.3533-0.2040 0.2650 (  5844 PWs)   bands (ev):

   -47.5478 -47.5415 -35.2314 -35.2301 -23.8293 -23.7991 -23.7880 -23.6802
   -23.6763 -23.6206  -9.7947  -9.3584  -9.2017  -8.8978  -8.5556  -8.5135
     2.3024   2.4725   2.6635   2.7773   3.4091   3.7364   4.3148   4.5288
     4.9073   5.2167   5.4562   5.5972   5.6515   5.9642   5.9868   6.3016
     6.3041   6.5649

     occupation numbers 
     1.0000   1.0000   1.0000   1.0000   1.0000   1.0000   1.0000   1.0000
     1.0000   1.0000   1.0000   1.0000   1.0000   1.0000   1.0000   1.0000
     1.0000   1.0000   1.0000   1.0000   1.0000   1.0000   1.0000   1.0000
     1.0000   1.0000   1.0000   1.0000   1.0000   1.0000   1.0000   1.0000
     1.0000   1.0000

          k =-0.3533 0.8160-0.0662 (  5841 PWs)   bands (ev):

   -47.5465 -47.5428 -35.2312 -35.2304 -23.8222 -23.8147 -23.7891 -23.6891
   -23.6490 -23.6310  -9.6672  -9.3933  -9.2860  -8.7181  -8.6465  -8.6121
     2.2722   2.3873   2.5991   2.9418   3.6404   3.9684   4.1480   4.5795
     4.7694   5.1343   5.3933   5.5509   5.6590   5.8536   5.9941   6.1645
     6.3384   6.5800

     occupation numbers 
     1.0000   1.0000   1.0000   1.0000   1.0000   1.0000   1.0000   1.0000
     1.0000   1.0000   1.0000   1.0000   1.0000   1.0000   1.0000   1.0000
     1.0000   1.0000   1.0000   1.0000   1.0000   1.0000   1.0000   1.0000
     1.0000   1.0000   1.0000   1.0000   1.0000   1.0000   1.0000   1.0000
     1.0000   1.0000

          k =-0.3533 0.6120 0.0000 (  5844 PWs)   bands (ev):

   -47.5447 -47.5446 -35.2308 -35.2308 -23.8227 -23.7977 -23.7624 -23.7171
   -23.6589 -23.6386  -9.5188  -9.4297  -9.1387  -8.8733  -8.7859  -8.6064
     2.2718   2.4903   2.8826   3.2594   3.5496   3.6054   4.0851   4.4130
     4.5878   4.9787   5.3027   5.5000   5.8426   5.8872   6.0437   6.3140
     6.3908   6.6011

     occupation numbers 
     1.0000   1.0000   1.0000   1.0000   1.0000   1.0000   1.0000   1.0000
     1.0000   1.0000   1.0000   1.0000   1.0000   1.0000   1.0000   1.0000
     1.0000   1.0000   1.0000   1.0000   1.0000   1.0000   1.0000   1.0000
     1.0000   1.0000   1.0000   1.0000   1.0000   1.0000   1.0000   1.0000
     1.0000   1.0000

          k = 0.5300 0.3060-0.3975 (  5862 PWs)   bands (ev):

   -47.5467 -47.5426 -35.2312 -35.2304 -23.8318 -23.8255 -23.7993 -23.6780
   -23.6386 -23.6208  -9.7308  -9.4317  -9.3286  -8.6736  -8.5770  -8.5502
     2.2525   2.2904   2.4602   2.5994   3.9447   4.1679   4.4070   4.7868
     4.8821   4.9594   5.3955   5.4787   5.6677   5.7485   5.9910   6.0965
     6.2414   6.5220

     occupation numbers 
     1.0000   1.0000   1.0000   1.0000   1.0000   1.0000   1.0000   1.0000
     1.0000   1.0000   1.0000   1.0000   1.0000   1.0000   1.0000   1.0000
     1.0000   1.0000   1.0000   1.0000   1.0000   1.0000   1.0000   1.0000
     1.0000   1.0000   1.0000   1.0000   1.0000   1.0000   1.0000   1.0000
     1.0000   1.0000

          k =-0.0000 0.0000 0.1987 (  5830 PWs)   bands (ev):

   -47.5501 -47.5392 -35.2318 -35.2297 -23.8133 -23.8133 -23.7548 -23.6943
   -23.6943 -23.6180  -9.9790  -9.3519  -9.3519  -8.6805  -8.4779  -8.4779
     2.4611   2.4611   2.7144   2.8605   2.8605   3.5324   4.4301   4.4301
     4.4389   5.5940   5.6198   5.6198   5.8495   6.1072   6.1072   6.2844
     6.7220   6.7220

     occupation numbers 
     1.0000   1.0000   1.0000   1.0000   1.0000   1.0000   1.0000   1.0000
     1.0000   1.0000   1.0000   1.0000   1.0000   1.0000   1.0000   1.0000
     1.0000   1.0000   1.0000   1.0000   1.0000   1.0000   1.0000   1.0000
     1.0000   1.0000   1.0000   1.0000   1.0000   1.0000   1.0000   1.0000
     1.0000   1.0000

          k =-0.0000-0.2040 0.2650 (  5830 PWs)   bands (ev):

   -47.5489 -47.5405 -35.2315 -35.2299 -23.8190 -23.7868 -23.7344 -23.7221
   -23.7018 -23.6275  -9.8467  -9.2970  -9.2141  -8.8536  -8.6500  -8.4968
     2.3628   2.6178   2.9053   3.1567   3.2401   3.6857   3.9792   4.0522
     4.4823   5.0318   5.4776   5.7361   5.7891   6.0876   6.2781   6.2795
     6.6002   6.6417

     occupation numbers 
     1.0000   1.0000   1.0000   1.0000   1.0000   1.0000   1.0000   1.0000
     1.0000   1.0000   1.0000   1.0000   1.0000   1.0000   1.0000   1.0000
     1.0000   1.0000   1.0000   1.0000   1.0000   1.0000   1.0000   1.0000
     1.0000   1.0000   1.0000   1.0000   1.0000   1.0000   1.0000   1.0000
     1.0000   1.0000

          k =-0.0000 0.8160-0.0662 (  5847 PWs)   bands (ev):

   -47.5465 -47.5429 -35.2311 -35.2304 -23.8114 -23.7586 -23.7517 -23.7323
   -23.6977 -23.6448  -9.6018  -9.1790  -9.1278  -8.9759  -8.8789  -8.6281
     2.3731   2.8147   3.1744   3.3467   3.4399   3.7319   3.7742   4.1609
     4.3219   4.4413   5.1583   5.6366   5.9580   6.0417   6.2880   6.3820
     6.4861   6.5258

     occupation numbers 
     1.0000   1.0000   1.0000   1.0000   1.0000   1.0000   1.0000   1.0000
     1.0000   1.0000   1.0000   1.0000   1.0000   1.0000   1.0000   1.0000
     1.0000   1.0000   1.0000   1.0000   1.0000   1.0000   1.0000   1.0000
     1.0000   1.0000   1.0000   1.0000   1.0000   1.0000   1.0000   1.0000
     1.0000   1.0000

          k =-0.0000 0.6120 0.0000 (  5866 PWs)   bands (ev):

   -47.5457 -47.5436 -35.2310 -35.2306 -23.7936 -23.7870 -23.7672 -23.7168
   -23.6742 -23.6587  -9.4997  -9.3097  -9.1513  -8.8487  -8.8272  -8.7485
     2.6051   2.7587   2.8127   3.0569   3.4577   3.6996   3.9711   4.2632
     4.5722   4.7133   5.1421   5.3092   5.9617   6.1748   6.2316   6.3589
     6.3877   6.6147

     occupation numbers 
     1.0000   1.0000   1.0000   1.0000   1.0000   1.0000   1.0000   1.0000
     1.0000   1.0000   1.0000   1.0000   1.0000   1.0000   1.0000   1.0000
     1.0000   1.0000   1.0000   1.0000   1.0000   1.0000   1.0000   1.0000
     1.0000   1.0000   1.0000   1.0000   1.0000   1.0000   1.0000   1.0000
     1.0000   1.0000

          k =-0.0000 0.4080 0.0662 (  5840 PWs)   bands (ev):

   -47.5483 -47.5411 -35.2315 -35.2301 -23.8175 -23.7933 -23.7514 -23.7114
   -23.6915 -23.6290  -9.7858  -9.3323  -9.0870  -8.9847  -8.6111  -8.5443
     2.4169   2.5477   2.6849   3.1922   3.2129   3.4630   3.9952   4.3468
     4.5836   5.3363   5.4755   5.7164   5.8778   5.9943   6.1526   6.3866
     6.4706   6.6406

     occupation numbers 
     1.0000   1.0000   1.0000   1.0000   1.0000   1.0000   1.0000   1.0000
     1.0000   1.0000   1.0000   1.0000   1.0000   1.0000   1.0000   1.0000
     1.0000   1.0000   1.0000   1.0000   1.0000   1.0000   1.0000   1.0000
     1.0000   1.0000   1.0000   1.0000   1.0000   1.0000   1.0000   1.0000
     1.0000   1.0000

          k =-0.1767-0.1020 0.3312 (  5842 PWs)   bands (ev):

   -47.5483 -47.5411 -35.2315 -35.2301 -23.8172 -23.7914 -23.7500 -23.7126
   -23.6911 -23.6299  -9.8069  -9.3137  -9.0796  -9.0185  -8.6114  -8.5357
     2.4675   2.5938   2.9295   3.2082   3.2593   3.5004   4.0309   4.3899
     4.4517   5.0717   5.2543   5.7501   5.7554   5.9200   6.0115   6.3455
     6.5233   6.6473

     occupation numbers 
     1.0000   1.0000   1.0000   1.0000   1.0000   1.0000   1.0000   1.0000
     1.0000   1.0000   1.0000   1.0000   1.0000   1.0000   1.0000   1.0000
     1.0000   1.0000   1.0000   1.0000   1.0000   1.0000   1.0000   1.0000
     1.0000   1.0000   1.0000   1.0000   1.0000   1.0000   1.0000   1.0000
     1.0000   1.0000

          k =-0.1767 0.9180 0.0000 (  5846 PWs)   bands (ev):

   -47.5468 -47.5426 -35.2312 -35.2304 -23.8217 -23.7867 -23.7716 -23.7052
   -23.6763 -23.6334  -9.6785  -9.2668  -9.2246  -8.8671  -8.7690  -8.5596
     2.3363   2.6610   2.8556   3.2949   3.3817   3.7547   3.9524   4.3583
     4.6039   4.8845   5.3638   5.4956   5.7376   5.8942   6.0555   6.2744
     6.4110   6.5455

     occupation numbers 
     1.0000   1.0000   1.0000   1.0000   1.0000   1.0000   1.0000   1.0000
     1.0000   1.0000   1.0000   1.0000   1.0000   1.0000   1.0000   1.0000
     1.0000   1.0000   1.0000   1.0000   1.0000   1.0000   1.0000   1.0000
     1.0000   1.0000   1.0000   1.0000   1.0000   1.0000   1.0000   1.0000
     1.0000   1.0000

          k =-0.1767 0.7140 0.0662 (  5846 PWs)   bands (ev):

   -47.5447 -47.5447 -35.2308 -35.2308 -23.8136 -23.8127 -23.7387 -23.7372
   -23.6475 -23.6470  -9.4926  -9.4795  -9.0694  -8.9783  -8.6772  -8.6611
     2.3491   2.4555   2.9142   3.1485   3.5615   3.9185   3.9821   4.2652
     4.6206   4.9490   5.4053   5.5191   5.6391   5.8925   6.0779   6.2239
     6.4242   6.5325

     occupation numbers 
     1.0000   1.0000   1.0000   1.0000   1.0000   1.0000   1.0000   1.0000
     1.0000   1.0000   1.0000   1.0000   1.0000   1.0000   1.0000   1.0000
     1.0000   1.0000   1.0000   1.0000   1.0000   1.0000   1.0000   1.0000
     1.0000   1.0000   1.0000   1.0000   1.0000   1.0000   1.0000   1.0000
     1.0000   1.0000

          k =-0.1767 0.5100 0.1325 (  5834 PWs)   bands (ev):

   -47.5467 -47.5426 -35.2312 -35.2304 -23.8216 -23.7877 -23.7732 -23.7051
   -23.6755 -23.6330  -9.6643  -9.2649  -9.2206  -8.8675  -8.7797  -8.5533
     2.3048   2.6525   2.7329   3.0534   3.3970   3.7737   3.9268   4.4823
     4.6106   5.1340   5.3065   5.6000   5.8118   6.0141   6.0962   6.2262
     6.4086   6.6210

     occupation numbers 
     1.0000   1.0000   1.0000   1.0000   1.0000   1.0000   1.0000   1.0000
     1.0000   1.0000   1.0000   1.0000   1.0000   1.0000   1.0000   1.0000
     1.0000   1.0000   1.0000   1.0000   1.0000   1.0000   1.0000   1.0000
     1.0000   1.0000   1.0000   1.0000   1.0000   1.0000   1.0000   1.0000
     1.0000   1.0000

          k = 0.7066 0.4080-0.3312 (  5849 PWs)   bands (ev):

   -47.5465 -47.5428 -35.2312 -35.2304 -23.8214 -23.8144 -23.7894 -23.6883
   -23.6492 -23.6317  -9.6781  -9.4003  -9.2761  -8.7202  -8.6584  -8.6004
     2.4073   2.4566   2.5506   2.8616   3.7418   3.9034   4.2407   4.5276
     4.9440   5.0448   5.3718   5.4349   5.6492   5.7786   5.9499   6.0804
     6.2146   6.5751

     occupation numbers 
     1.0000   1.0000   1.0000   1.0000   1.0000   1.0000   1.0000   1.0000
     1.0000   1.0000   1.0000   1.0000   1.0000   1.0000   1.0000   1.0000
     1.0000   1.0000   1.0000   1.0000   1.0000   1.0000   1.0000   1.0000
     1.0000   1.0000   1.0000   1.0000   1.0000   1.0000   1.0000   1.0000
     1.0000   1.0000

          k = 0.7066 0.2040-0.2650 (  5854 PWs)   bands (ev):

   -47.5457 -47.5436 -35.2310 -35.2306 -23.8247 -23.8232 -23.7717 -23.7038
   -23.6387 -23.6335  -9.6095  -9.4735  -9.2057  -8.8115  -8.6404  -8.5864
     2.2675   2.3037   2.6776   3.1401   3.4313   4.1397   4.2914   4.4426
     4.9450   5.0602   5.2774   5.3836   5.6497   5.8041   6.0478   6.1158
     6.2675   6.5628

     occupation numbers 
     1.0000   1.0000   1.0000   1.0000   1.0000   1.0000   1.0000   1.0000
     1.0000   1.0000   1.0000   1.0000   1.0000   1.0000   1.0000   1.0000
     1.0000   1.0000   1.0000   1.0000   1.0000   1.0000   1.0000   1.0000
     1.0000   1.0000   1.0000   1.0000   1.0000   1.0000   1.0000   1.0000
     1.0000   1.0000

          k = 0.7066-0.0000-0.1987 (  5838 PWs)   bands (ev):

   -47.5446 -47.5446 -35.2308 -35.2308 -23.8133 -23.8133 -23.7383 -23.7383
   -23.6470 -23.6470  -9.4818  -9.4818  -9.0291  -9.0291  -8.6655  -8.6655
     2.3650   2.3650   3.0293   3.0293   3.7011   3.7011   4.1358   4.1358
     4.7642   4.7642   5.5115   5.5115   5.8156   5.8156   6.1673   6.1673
     6.5113   6.5113

     occupation numbers 
     1.0000   1.0000   1.0000   1.0000   1.0000   1.0000   1.0000   1.0000
     1.0000   1.0000   1.0000   1.0000   1.0000   1.0000   1.0000   1.0000
     1.0000   1.0000   1.0000   1.0000   1.0000   1.0000   1.0000   1.0000
     1.0000   1.0000   1.0000   1.0000   1.0000   1.0000   1.0000   1.0000
     1.0000   1.0000

          k = 0.5300 0.3060-0.1987 (  5851 PWs)   bands (ev):

   -47.5465 -47.5428 -35.2312 -35.2304 -23.8216 -23.8149 -23.7900 -23.6884
   -23.6490 -23.6314  -9.6681  -9.3956  -9.2812  -8.7231  -8.6505  -8.6047
     2.3386   2.4591   2.5483   2.7419   3.6954   3.9814   4.2543   4.5194
     4.8933   4.9971   5.4481   5.6419   5.7599   5.8054   5.9851   6.0473
     6.2178   6.5963

     occupation numbers 
     1.0000   1.0000   1.0000   1.0000   1.0000   1.0000   1.0000   1.0000
     1.0000   1.0000   1.0000   1.0000   1.0000   1.0000   1.0000   1.0000
     1.0000   1.0000   1.0000   1.0000   1.0000   1.0000   1.0000   1.0000
     1.0000   1.0000   1.0000   1.0000   1.0000   1.0000   1.0000   1.0000
     1.0000   1.0000

          k =-0.0000 0.0000 0.3975 (  5836 PWs)   bands (ev):

   -47.5478 -47.5415 -35.2313 -35.2301 -23.7887 -23.7887 -23.7271 -23.7200
   -23.7200 -23.6482  -9.7240  -9.1790  -9.1790  -8.9770  -8.6758  -8.6758
     2.7725   2.7725   3.0790   3.3765   3.3765   3.8592   3.9098   3.9098
     4.0022   4.9291   4.9291   5.2097   5.8374   6.2004   6.2004   6.2617
     6.6290   6.6290

     occupation numbers 
     1.0000   1.0000   1.0000   1.0000   1.0000   1.0000   1.0000   1.0000
     1.0000   1.0000   1.0000   1.0000   1.0000   1.0000   1.0000   1.0000
     1.0000   1.0000   1.0000   1.0000   1.0000   1.0000   1.0000   1.0000
     1.0000   1.0000   1.0000   1.0000   1.0000   1.0000   1.0000   1.0000
     1.0000   1.0000

          k =-0.0000 1.0200 0.0662 (  5855 PWs)   bands (ev):

   -47.5465 -47.5429 -35.2311 -35.2304 -23.8099 -23.7583 -23.7514 -23.7306
   -23.6985 -23.6459  -9.6232  -9.1906  -9.1071  -8.9872  -8.8876  -8.6159
     2.5453   2.9708   3.1883   3.3893   3.4096   3.7250   3.8755   4.1742
     4.3207   4.3473   4.9970   5.4346   5.8142   5.8461   6.2651   6.3840
     6.4592   6.5099

     occupation numbers 
     1.0000   1.0000   1.0000   1.0000   1.0000   1.0000   1.0000   1.0000
     1.0000   1.0000   1.0000   1.0000   1.0000   1.0000   1.0000   1.0000
     1.0000   1.0000   1.0000   1.0000   1.0000   1.0000   1.0000   1.0000
     1.0000   1.0000   1.0000   1.0000   1.0000   1.0000   1.0000   1.0000
     1.0000   1.0000

          k =-0.0000 0.8160 0.1325 (  5859 PWs)   bands (ev):

   -47.5447 -47.5447 -35.2308 -35.2308 -23.8227 -23.7955 -23.7637 -23.7147
   -23.6605 -23.6388  -9.5285  -9.4509  -9.1249  -8.8670  -8.7832  -8.6138
     2.3091   2.7669   2.7817   3.2518   3.5623   3.5734   4.2709   4.3408
     4.7042   4.8815   5.2990   5.3185   5.6001   5.8818   6.0779   6.1614
     6.3007   6.5805

     occupation numbers 
     1.0000   1.0000   1.0000   1.0000   1.0000   1.0000   1.0000   1.0000
     1.0000   1.0000   1.0000   1.0000   1.0000   1.0000   1.0000   1.0000
     1.0000   1.0000   1.0000   1.0000   1.0000   1.0000   1.0000   1.0000
     1.0000   1.0000   1.0000   1.0000   1.0000   1.0000   1.0000   1.0000
     1.0000   1.0000

          k = 0.8833 0.5100-0.2650 (  5855 PWs)   bands (ev):

   -47.5457 -47.5436 -35.2310 -35.2306 -23.7931 -23.7850 -23.7647 -23.7163
   -23.6757 -23.6600  -9.5331  -9.3333  -9.1312  -8.8429  -8.8357  -8.7394
     2.8062   2.8954   2.9031   3.4490   3.5278   3.6879   3.8240   4.1425
     4.4718   4.5896   4.8988   5.1106   5.8834   5.9637   6.1431   6.3101
     6.3501   6.5613

     occupation numbers 
     1.0000   1.0000   1.0000   1.0000   1.0000   1.0000   1.0000   1.0000
     1.0000   1.0000   1.0000   1.0000   1.0000   1.0000   1.0000   1.0000
     1.0000   1.0000   1.0000   1.0000   1.0000   1.0000   1.0000   1.0000
     1.0000   1.0000   1.0000   1.0000   1.0000   1.0000   1.0000   1.0000
     1.0000   1.0000

          k = 0.8833 0.3060-0.1987 (  5852 PWs)   bands (ev):

   -47.5447 -47.5447 -35.2308 -35.2308 -23.8125 -23.8125 -23.7374 -23.7374
   -23.6477 -23.6477  -9.4995  -9.4995  -9.0188  -9.0188  -8.6683  -8.6683
     2.4852   2.4852   3.0470   3.0470   3.7897   3.7897   4.0785   4.0785
     4.8332   4.8332   5.3193   5.3193   5.6847   5.6847   6.0852   6.0852
     6.4601   6.4601

     occupation numbers 
     1.0000   1.0000   1.0000   1.0000   1.0000   1.0000   1.0000   1.0000
     1.0000   1.0000   1.0000   1.0000   1.0000   1.0000   1.0000   1.0000
     1.0000   1.0000   1.0000   1.0000   1.0000   1.0000   1.0000   1.0000
     1.0000   1.0000   1.0000   1.0000   1.0000   1.0000   1.0000   1.0000
     1.0000   1.0000

          k = 0.0000 0.0000-0.5962 (  5854 PWs)   bands (ev):

   -47.5447 -47.5447 -35.2308 -35.2308 -23.7547 -23.7547 -23.7547 -23.7547
   -23.6883 -23.6883  -9.3608  -9.3608  -8.9336  -8.9336  -8.9336  -8.9336
     3.2810   3.2810   3.2810   3.2810   3.5257   3.5257   4.1229   4.1229
     4.1229   4.1229   4.4624   4.4624   6.0989   6.0989   6.4165   6.4165
     6.4165   6.4165

     occupation numbers 
     1.0000   1.0000   1.0000   1.0000   1.0000   1.0000   1.0000   1.0000
     1.0000   1.0000   1.0000   1.0000   1.0000   1.0000   1.0000   1.0000
     1.0000   1.0000   1.0000   1.0000   1.0000   1.0000   1.0000   1.0000
     1.0000   1.0000   1.0000   1.0000   1.0000   1.0000   1.0000   1.0000
     1.0000   1.0000

     highest occupied level (ev):     6.7220

!    total energy              =    -936.82871302 Ry
     estimated scf accuracy    <          9.1E-14 Ry

     The total energy is the sum of the following terms:
     one-electron contribution =    -146.69107710 Ry
     hartree contribution      =     106.60801592 Ry
     xc contribution           =    -107.99038986 Ry
     ewald contribution        =    -325.30145075 Ry
     one-center paw contrib.   =    -463.45381123 Ry
      -> PAW hartree energy AE =     290.85634965 Ry
      -> PAW hartree energy PS =    -289.34781476 Ry
      -> PAW xc energy AE      =    -560.31686487 Ry
      -> PAW xc energy PS      =      95.35451876 Ry
      -> total E_H with PAW    =     108.11655081 Ry
      -> total E_XC with PAW   =    -572.95273598 Ry

     convergence has been achieved in  35 iterations

     Forces acting on atoms (cartesian axes, Ry/au):

     atom    1 type  1   force =    -0.00000000    0.00000000   -0.00027248
     atom    2 type  1   force =     0.00000000   -0.00000000   -0.00027248
     atom    3 type  2   force =     0.02071491   -0.00554336   -0.00550238
     atom    4 type  2   force =    -0.00555676    0.02071132   -0.00550238
     atom    5 type  2   force =    -0.01515815   -0.01516796   -0.00550238
     atom    6 type  2   force =     0.00555676    0.02071132   -0.00550238
     atom    7 type  2   force =    -0.02071491   -0.00554336   -0.00550238
     atom    8 type  2   force =     0.01515815   -0.01516796   -0.00550238
     atom    9 type  3   force =     0.00000000   -0.00000000    0.01677962
     atom   10 type  3   force =     0.00000000   -0.00000000    0.01677962
     The non-local contrib.  to forces
     atom    1 type  1   force =    -0.00000000   -0.00000000    0.00808723
     atom    2 type  1   force =     0.00000000    0.00000000    0.00808723
     atom    3 type  2   force =     0.33832609   -0.19549530   -0.04234462
     atom    4 type  2   force =     0.00014085    0.39074664   -0.04234462
     atom    5 type  2   force =    -0.33846694   -0.19525134   -0.04234462
     atom    6 type  2   force =    -0.00014085    0.39074664   -0.04234462
     atom    7 type  2   force =    -0.33832609   -0.19549530   -0.04234462
     atom    8 type  2   force =     0.33846694   -0.19525134   -0.04234462
     atom    9 type  3   force =    -0.00000000   -0.00000000   -0.00607408
     atom   10 type  3   force =    -0.00000000   -0.00000000   -0.00607408
     The ionic contribution  to forces
     atom    1 type  1   force =     0.00000000   -0.00000000   -1.09585533
     atom    2 type  1   force =    -0.00000000   -0.00000000   -1.09585532
     atom    3 type  2   force =    -3.53130002    2.66810612    0.35765109
     atom    4 type  2   force =    -0.54499767   -4.39224859    0.35765109
     atom    5 type  2   force =     4.07629769    1.72414247    0.35765109
     atom    6 type  2   force =     0.54499767   -4.39224859    0.35765109
     atom    7 type  2   force =     3.53130002    2.66810612    0.35765109
     atom    8 type  2   force =    -4.07629769    1.72414247    0.35765109
     atom    9 type  3   force =     0.00000000   -0.00000000    0.02290205
     atom   10 type  3   force =     0.00000000    0.00000000    0.02290205
     The local contribution  to forces
     atom    1 type  1   force =     0.00000000   -0.00000000    1.08749569
     atom    2 type  1   force =    -0.00000000    0.00000000    1.08749569
     atom    3 type  2   force =     3.21534644   -2.47990817   -0.32073678
     atom    4 type  2   force =     0.53999025    4.02452579   -0.32073678
     atom    5 type  2   force =    -3.75533669   -1.54461761   -0.32073679
     atom    6 type  2   force =    -0.53999026    4.02452578   -0.32073678
     atom    7 type  2   force =    -3.21534644   -2.47990817   -0.32073678
     atom    8 type  2   force =     3.75533669   -1.54461761   -0.32073678
     atom    9 type  3   force =     0.00000000    0.00000000    0.00508052
     atom   10 type  3   force =    -0.00000000    0.00000000    0.00508053
     The core correction contribution to forces
     atom    1 type  1   force =     0.00000000    0.00000000    0.00000000
     atom    2 type  1   force =     0.00000000    0.00000000    0.00000000
     atom    3 type  2   force =    -0.00165774    0.00175404   -0.00007199
     atom    4 type  2   force =    -0.00069017   -0.00231267   -0.00007199
     atom    5 type  2   force =     0.00234792    0.00055863   -0.00007199
     atom    6 type  2   force =     0.00069017   -0.00231267   -0.00007199
     atom    7 type  2   force =     0.00165774    0.00175404   -0.00007199
     atom    8 type  2   force =    -0.00234792    0.00055863   -0.00007199
     atom    9 type  3   force =     0.00000000    0.00000000   -0.00512885
     atom   10 type  3   force =     0.00000000   -0.00000000   -0.00512885
     The Hubbard contrib.    to forces
     atom    1 type  1   force =     0.00000000    0.00000000    0.00000000
     atom    2 type  1   force =     0.00000000    0.00000000    0.00000000
     atom    3 type  2   force =     0.00000000    0.00000000    0.00000000
     atom    4 type  2   force =     0.00000000    0.00000000    0.00000000
     atom    5 type  2   force =     0.00000000    0.00000000    0.00000000
     atom    6 type  2   force =     0.00000000    0.00000000    0.00000000
     atom    7 type  2   force =     0.00000000    0.00000000    0.00000000
     atom    8 type  2   force =     0.00000000    0.00000000    0.00000000
     atom    9 type  3   force =     0.00000000    0.00000000    0.00000000
     atom   10 type  3   force =     0.00000000    0.00000000    0.00000000
     The SCF correction term to forces
     atom    1 type  1   force =    -0.00000000   -0.00000000    0.00000001
     atom    2 type  1   force =    -0.00000000   -0.00000000    0.00000001
     atom    3 type  2   force =     0.00000015   -0.00000005    0.00000000
     atom    4 type  2   force =    -0.00000003    0.00000015    0.00000000
     atom    5 type  2   force =    -0.00000012   -0.00000010    0.00000000
     atom    6 type  2   force =     0.00000003    0.00000015    0.00000000
     atom    7 type  2   force =    -0.00000015   -0.00000005    0.00000000
     atom    8 type  2   force =     0.00000012   -0.00000010    0.00000000
     atom    9 type  3   force =     0.00000000    0.00000000    0.00000006
     atom   10 type  3   force =    -0.00000000   -0.00000000    0.00000006

     Total force =     0.059194     Total SCF correction =     0.000000


     Computing stress (Cartesian axis) and pressure

          total   stress  (Ry/bohr**3)                   (kbar)     P=      -93.94
  -0.00069795  -0.00000000   0.00000000         -102.67       -0.00        0.00
   0.00000000  -0.00069795  -0.00000000            0.00     -102.67       -0.00
   0.00000000  -0.00000000  -0.00051987            0.00       -0.00      -76.47

     kinetic stress (kbar)  25350.56      0.00      0.00
                               -0.00  25350.56      0.00
                               -0.00      0.00  25331.21

     local   stress (kbar) -12894.22     -0.00     -0.00
                               -0.00 -12894.22     -0.00
                               -0.00     -0.00 -10794.39

     nonloc. stress (kbar)   6631.70      0.00     -0.00
                                0.00   6631.70      0.00
                               -0.00      0.00   6674.15

     hartree stress (kbar)   7195.43      0.00      0.00
                                0.00   7195.43      0.00
                                0.00      0.00   6673.07

     exc-cor stress (kbar)   1045.93      0.00     -0.00
                                0.00   1045.93      0.00
                               -0.00      0.00   1042.76

     corecor stress (kbar)  -6530.91     -0.00     -0.00
                               -0.00  -6530.91     -0.00
                               -0.00     -0.00  -6531.57

     ewald   stress (kbar) -20901.16      0.00      0.00
                                0.00 -20901.16      0.00
                                0.00      0.00 -22471.71

     hubbard stress (kbar)      0.00      0.00      0.00
                                0.00      0.00      0.00
                                0.00      0.00      0.00

     DFT-D   stress (kbar)      0.00      0.00      0.00
                                0.00      0.00      0.00
                                0.00      0.00      0.00

     XDM     stress (kbar)      0.00      0.00      0.00
                                0.00      0.00      0.00
                                0.00      0.00      0.00

     dft-nl  stress (kbar)      0.00      0.00      0.00
                                0.00      0.00      0.00
                                0.00      0.00      0.00

     TS-vdW  stress (kbar)      0.00      0.00      0.00
                                0.00      0.00      0.00
                                0.00      0.00      0.00

     MDB     stress (kbar)      0.00      0.00      0.00
                                0.00      0.00      0.00
                                0.00      0.00      0.00

     3D-RISM stress (kbar)      0.00      0.00      0.00
                                0.00      0.00      0.00
                                0.00      0.00      0.00

     Message from routine punch:
     Nothing written, as per user request (disk_io='none')
 
     init_run     :      0.56s CPU      0.77s WALL (       1 calls)
     electrons    :     24.44s CPU     24.96s WALL (       1 calls)
     forces       :      0.08s CPU      0.08s WALL (       1 calls)
     stress       :      0.16s CPU      0.17s WALL (       1 calls)

     Called by init_run:
     wfcinit      :      0.17s CPU      0.28s WALL (       1 calls)
     wfcinit:atom :      0.02s CPU      0.03s WALL (      32 calls)
     wfcinit:wfcr :      0.12s CPU      0.20s WALL (      32 calls)
     potinit      :      0.10s CPU      0.12s WALL (       1 calls)
     hinit0       :      0.20s CPU      0.23s WALL (       1 calls)

     Called by electrons:
     c_bands      :     18.55s CPU     18.92s WALL (      35 calls)
     sum_band     :      2.47s CPU      2.51s WALL (      35 calls)
     v_of_rho     :      0.15s CPU      0.17s WALL (      36 calls)
     v_h          :      0.06s CPU      0.07s WALL (      36 calls)
     v_xc         :      0.09s CPU      0.10s WALL (      38 calls)
     newd         :      0.33s CPU      0.36s WALL (      36 calls)
     PAW_pot      :      2.56s CPU      2.63s WALL (      36 calls)
     mix_rho      :      0.27s CPU      0.28s WALL (      35 calls)

     Called by c_bands:
     init_us_2    :      0.75s CPU      0.77s WALL (    2336 calls)
     cegterg      :     16.70s CPU     17.03s WALL (    1120 calls)

     Called by sum_band:
     sum_band:wei :      0.00s CPU      0.00s WALL (      35 calls)
     sum_band:loo :      1.92s CPU      1.95s WALL (      35 calls)
     sum_band:buf :      0.39s CPU      0.41s WALL (    1120 calls)
     sum_band:ini :      0.36s CPU      0.36s WALL (    1120 calls)
     sum_band:cal :      0.02s CPU      0.02s WALL (    1120 calls)
     sum_band:bec :      0.42s CPU      0.43s WALL (    1120 calls)
     addusdens    :      0.36s CPU      0.37s WALL (      35 calls)
                                        0.37s GPU  (      35 calls)
     addusd:skk   :      0.01s CPU      0.01s WALL (     105 calls)
                                        0.01s GPU  (     105 calls)

     Called by *egterg:
     cdiaghg      :      7.44s CPU      7.60s WALL (    6173 calls)
                                        7.54s GPU  (    6173 calls)
     cegterg:over :      0.47s CPU      0.48s WALL (    5053 calls)
     cegterg:upda :      1.55s CPU      1.56s WALL (    5053 calls)
     cegterg:last :      0.21s CPU      0.21s WALL (    3389 calls)
     h_psi        :      4.61s CPU      4.90s WALL (    6205 calls)
     s_psi        :      1.62s CPU      1.64s WALL (    6205 calls)
     g_psi        :      0.10s CPU      0.10s WALL (    5053 calls)

     Called by h_psi:
     h_psi:calbec :      0.11s CPU      0.14s WALL (    6205 calls)
     vloc_psi     :      2.96s CPU      3.25s WALL (    6205 calls)
                                        3.19s GPU  (    6205 calls)
     add_vuspsi   :      1.37s CPU      1.40s WALL (    6205 calls)

     General routines
     calbec       :      0.12s CPU      0.16s WALL (    7869 calls)
     fft          :      0.05s CPU      0.08s WALL (     491 calls)
                                        0.03s GPU  (     455 calls)
     ffts         :      0.02s CPU      0.02s WALL (      71 calls)
                                        0.00s GPU  (      35 calls)
     fftw         :      0.21s CPU      1.98s WALL (   28160 calls)
                                        1.70s GPU  (   28160 calls)
     interpolate  :      0.11s CPU      0.12s WALL (      36 calls)
 
     Parallel routines

     PAW routines
     PAW_pot      :      2.56s CPU      2.63s WALL (      36 calls)
     PAW_symme    :      0.00s CPU      0.00s WALL (      71 calls)
 
     PWSCF        :     25.57s CPU     26.33s WALL

 
   This run was terminated on:  17: 6:32  29Nov2025            

=------------------------------------------------------------------------------=
   JOB DONE.
=------------------------------------------------------------------------------=
