
     Program PWSCF v.7.5 starts on 29Nov2025 at 17: 5:36 

     This program is part of the open-source Quantum ESPRESSO suite
     for quantum simulation of materials; please cite
         "P. Giannozzi et al., J. Phys.:Condens. Matter 21 395502 (2009);
         "P. Giannozzi et al., J. Phys.:Condens. Matter 29 465901 (2017);
         "P. Giannozzi et al., J. Chem. Phys. 152 154105 (2020);
          URL http://www.quantum-espresso.org", 
     in publications or presentations arising from this work. More details at
     http://www.quantum-espresso.org/quote

     Parallel version (MPI & OpenMP), running on       1 processor cores
     Number of MPI processes:                 1
     Threads/MPI process:                     1

     MPI processes distributed on     1 nodes
     1521650 MiB available memory on the printing compute node when the environment starts
 
     Reading input from espresso.pwi
Warning: card &CELL ignored
Warning: card &FCP ignored
Warning: card &RISM ignored

     Current dimensions of program PWSCF are:
     Max number of different atomic species (ntypx) = 10
     Max number of k-points (npk) =  40000
     Max angular momentum in pseudopotentials (lmaxx) =  4
     file O.pbesol-n-kjpaw_psl.0.1.UPF: wavefunction(s)  2P renormalized
     file Nb.pbesol-spn-kjpaw_psl.0.3.0.UPF: wavefunction(s)  4S 4P renormalized
     Message from routine setup:
     using ibrav=0 with symmetry is DISCOURAGED, use correct ibrav instead
 
     Subspace diagonalization in iterative solution of the eigenvalue problem:
     a serial algorithm will be used

 
     G-vector sticks info
     --------------------
     sticks:   dense  smooth     PW     G-vecs:    dense   smooth      PW
     Sum        2813    1679    489                93705    43585    6923
 
     Using Slab Decomposition
 


     bravais-lattice index     =            0
     lattice parameter (alat)  =      10.4359  a.u.
     unit-cell volume          =     694.0788 (a.u.)^3
     number of atoms/cell      =           10
     number of atomic types    =            3
     number of electrons       =        68.00
     number of Kohn-Sham states=           34
     kinetic-energy cutoff     =      60.0000  Ry
     charge density cutoff     =     400.0000  Ry
     scf convergence threshold =      1.0E-12
     mixing beta               =       0.7000
     number of iterations used =            8  plain     mixing
     Exchange-correlation= SLA  PW   PSX  PSC
                           (   1   4  10   8   0   0   0)

     GPU acceleration is ACTIVE.  1 visible GPUs per MPI rank


     GPU used by master process:

        Device Number: 0
        Device name: NVIDIA B200
        Compute capability : 100
        Ratio of single to double precision performance  : 16
        Memory Clock Rate (KHz): 3996000
        Memory Bus Width (bits): 7680
        Peak Memory Bandwidth (GB/s): ******

     celldm(1)=  10.435901  celldm(2)=   0.000000  celldm(3)=   0.000000
     celldm(4)=   0.000000  celldm(5)=   0.000000  celldm(6)=   0.000000

     crystal axes: (cart. coord. in units of alat)
               a(1) = (   0.455224   0.262824   0.850702 )  
               a(2) = (  -0.455224   0.262824   0.850702 )  
               a(3) = (   0.000000  -0.525648   0.850702 )  

     reciprocal axes: (cart. coord. in units 2 pi/alat)
               b(1) = (  1.098360  0.634138  0.391833 )  
               b(2) = ( -1.098360  0.634138  0.391833 )  
               b(3) = ( -0.000000 -1.268277  0.391833 )  


     PseudoPot. # 1 for Li read from file:
     /home/qhossain/SSSP_1.3.0_PBEsol_efficiency/li_pbesol_v1.4.uspp.F.UPF
     MD5 check sum: aa28d9aeea6a965f2dc95ee9517b3536
     Pseudo is Ultrasoft, Zval =  3.0
     Generated by new atomic code, or converted to UPF format
     Using radial grid of  751 points,  5 beta functions with: 
                l(1) =   0
                l(2) =   0
                l(3) =   0
                l(4) =   1
                l(5) =   1
     Q(r) pseudized with 10 coefficients,  rinner =    1.150   1.150   1.150


     PseudoPot. # 2 for O  read from file:
     /home/qhossain/SSSP_1.3.0_PBEsol_efficiency/O.pbesol-n-kjpaw_psl.0.1.UPF
     MD5 check sum: 81d73d1479e654e5638b0319f0d6c2c7
     Pseudo is Projector augmented-wave + core cor, Zval =  6.0
     Generated using "atomic" code by A. Dal Corso  v.6.0 svn rev. 13079
     Shape of augmentation charge: BESSEL
     Using radial grid of 1095 points,  4 beta functions with: 
                l(1) =   0
                l(2) =   0
                l(3) =   1
                l(4) =   1
     Q(r) pseudized with 0 coefficients 


     PseudoPot. # 3 for Nb read from file:
     /home/qhossain/SSSP_1.3.0_PBEsol_efficiency/Nb.pbesol-spn-kjpaw_psl.0.3.0.UPF
     MD5 check sum: 3501bca1474143575298708b2d32ca28
     Pseudo is Projector augmented-wave + core cor, Zval = 13.0
     Generated using "atomic" code by A. Dal Corso  v.6.0 svn rev. 13079
     Shape of augmentation charge: PSQ
     Using radial grid of 1227 points,  6 beta functions with: 
                l(1) =   0
                l(2) =   0
                l(3) =   1
                l(4) =   1
                l(5) =   2
                l(6) =   2
     Q(r) pseudized with 0 coefficients 


     atomic species   valence    mass     pseudopotential
     Li                3.00     6.94000     Li( 1.00)
     O                 6.00    15.99900     O ( 1.00)
     Nb               13.00    92.90637     Nb( 1.00)

      6 Sym. Ops. (no inversion) found ( 3 have fractional translation)


                                    s                        frac. trans.

      isym =  1     identity                                     

 cryst.   s( 1) = (     1          0          0      )
                  (     0          1          0      )
                  (     0          0          1      )

 cart.    s( 1) = (  1.0000000  0.0000000  0.0000000 )
                  (  0.0000000  1.0000000  0.0000000 )
                  (  0.0000000 -0.0000000  1.0000000 )


      isym =  2     120 deg rotation - cryst. axis [0,0,1]       

 cryst.   s( 2) = (     0          1          0      )
                  (     0          0          1      )
                  (     1          0          0      )

 cart.    s( 2) = ( -0.5000000 -0.8660254 -0.0000000 )
                  (  0.8660254 -0.5000000 -0.0000000 )
                  ( -0.0000000  0.0000000  1.0000000 )


      isym =  3     120 deg rotation - cryst. axis [0,0,-1]      

 cryst.   s( 3) = (     0          0          1      )
                  (     1          0          0      )
                  (     0          1          0      )

 cart.    s( 3) = ( -0.5000000  0.8660254  0.0000000 )
                  ( -0.8660254 -0.5000000 -0.0000000 )
                  ( -0.0000000 -0.0000000  1.0000000 )


      isym =  4     inv. 180 deg rotation - cart. axis [1,0,0]   

 cryst.   s( 4) = (     0          1          0      )    f =( -0.5000000 )
                  (     1          0          0      )       ( -0.5000000 )
                  (     0          0          1      )       ( -0.5000000 )

 cart.    s( 4) = ( -1.0000000  0.0000000  0.0000000 )    f =( -0.0000000 )
                  ( -0.0000000  1.0000000  0.0000000 )       ( -0.0000000 )
                  ( -0.0000000 -0.0000000  1.0000000 )       ( -1.2760536 )


      isym =  5     inv. 180 deg rotation - cryst. axis [0,1,0]  

 cryst.   s( 5) = (     1          0          0      )    f =( -0.5000000 )
                  (     0          0          1      )       ( -0.5000000 )
                  (     0          1          0      )       ( -0.5000000 )

 cart.    s( 5) = (  0.5000000  0.8660254  0.0000000 )    f =(  0.0000000 )
                  (  0.8660254 -0.5000000 -0.0000000 )       ( -0.0000000 )
                  (  0.0000000 -0.0000000  1.0000000 )       ( -1.2760536 )


      isym =  6     inv. 180 deg rotation - cryst. axis [1,1,0]  

 cryst.   s( 6) = (     0          0          1      )    f =( -0.5000000 )
                  (     0          1          0      )       ( -0.5000000 )
                  (     1          0          0      )       ( -0.5000000 )

 cart.    s( 6) = (  0.5000000 -0.8660254 -0.0000000 )    f =( -0.0000000 )
                  ( -0.8660254 -0.5000000 -0.0000000 )       ( -0.0000000 )
                  ( -0.0000000  0.0000000  1.0000000 )       ( -1.2760536 )


   Cartesian axes

     site n.     atom                  positions (alat units)
         1        Li     tau(   1) = (  -0.0000000  -0.0000000   1.9993946  )
         2        Li     tau(   2) = (   0.0000000  -0.0000000   0.7233410  )
         3        O      tau(   3) = (  -0.2917901  -0.0372145   1.4447581  )
         4        O      tau(   4) = (   0.1781238  -0.2340904   1.4447581  )
         5        O      tau(   5) = (   0.1136663   0.2713049   1.4447581  )
         6        O      tau(   6) = (   0.2771005   0.0287335   1.0194069  )
         7        O      tau(   7) = (  -0.1634341   0.2256093   1.0194069  )
         8        O      tau(   8) = (  -0.1136663  -0.2543428   1.0194069  )
         9        Nb     tau(   9) = (  -0.0000000  -0.0000000   1.2788000  )
        10        Nb     tau(  10) = (  -0.0000000  -0.0000000   0.0027464  )

   Crystallographic axes

     site n.     atom                  positions (cryst. coord.)
         1        Li     tau(   1) = (  0.7834289  0.7834289  0.7834289  )
         2        Li     tau(   2) = (  0.2834289  0.2834289  0.2834289  )
         3        O      tau(   3) = (  0.2220144  0.8629954  0.6133023  )
         4        O      tau(   4) = (  0.6133023  0.2220144  0.8629954  )
         5        O      tau(   5) = (  0.8629954  0.6133023  0.2220144  )
         6        O      tau(   6) = (  0.7220144  0.1133023  0.3629954  )
         7        O      tau(   7) = (  0.3629954  0.7220144  0.1133023  )
         8        O      tau(   8) = (  0.1133023  0.3629954  0.7220144  )
         9        Nb     tau(   9) = (  0.5010761  0.5010761  0.5010761  )
        10        Nb     tau(  10) = (  0.0010761  0.0010761  0.0010761  )

     number of k points=    32
                       cart. coord. in units 2pi/alat
        k(    1) = (   0.0000000   0.0000000   0.0000000), wk =   0.0092593
        k(    2) = (  -0.0000000  -0.2113795   0.0653055), wk =   0.0555556
        k(    3) = (  -0.0000000  -0.4227589   0.1306110), wk =   0.0555556
        k(    4) = (   0.0000000   0.6341384  -0.1959165), wk =   0.0277778
        k(    5) = (  -0.1830600  -0.1056897   0.1306110), wk =   0.0555556
        k(    6) = (  -0.1830600  -0.3170692   0.1959165), wk =   0.1111111
        k(    7) = (  -0.1830600   0.7398281  -0.1306110), wk =   0.1111111
        k(    8) = (  -0.1830600   0.5284486  -0.0653055), wk =   0.1111111
        k(    9) = (  -0.1830600   0.3170692   0.0000000), wk =   0.0555556
        k(   10) = (  -0.3661199  -0.2113795   0.2612221), wk =   0.0555556
        k(   11) = (  -0.3661199   0.8455178  -0.0653055), wk =   0.1111111
        k(   12) = (  -0.3661199   0.6341384   0.0000000), wk =   0.0555556
        k(   13) = (   0.5491799   0.3170692  -0.3918331), wk =   0.0277778
        k(   14) = (  -0.0000000  -0.0000000   0.1959165), wk =   0.0185185
        k(   15) = (  -0.0000000  -0.2113795   0.2612221), wk =   0.0555556
        k(   16) = (  -0.0000000   0.8455178  -0.0653055), wk =   0.0555556
        k(   17) = (  -0.0000000   0.6341384   0.0000000), wk =   0.0555556
        k(   18) = (  -0.0000000   0.4227589   0.0653055), wk =   0.0555556
        k(   19) = (  -0.1830600  -0.1056897   0.3265276), wk =   0.0555556
        k(   20) = (  -0.1830600   0.9512075   0.0000000), wk =   0.1111111
        k(   21) = (  -0.1830600   0.7398281   0.0653055), wk =   0.1111111
        k(   22) = (  -0.1830600   0.5284486   0.1306110), wk =   0.1111111
        k(   23) = (   0.7322399   0.4227589  -0.3265276), wk =   0.0555556
        k(   24) = (   0.7322399   0.2113795  -0.2612221), wk =   0.1111111
        k(   25) = (   0.7322399  -0.0000000  -0.1959165), wk =   0.0555556
        k(   26) = (   0.5491799   0.3170692  -0.1959165), wk =   0.0555556
        k(   27) = (  -0.0000000  -0.0000000   0.3918331), wk =   0.0185185
        k(   28) = (  -0.0000000   1.0568973   0.0653055), wk =   0.0555556
        k(   29) = (  -0.0000000   0.8455178   0.1306110), wk =   0.0555556
        k(   30) = (   0.9152999   0.5284486  -0.2612221), wk =   0.0555556
        k(   31) = (   0.9152999   0.3170692  -0.1959165), wk =   0.0555556
        k(   32) = (   0.0000000   0.0000000  -0.5877496), wk =   0.0092593

                       cryst. coord.
        k(    1) = (   0.0000000   0.0000000   0.0000000), wk =   0.0092593
        k(    2) = (  -0.0000000   0.0000000   0.1666667), wk =   0.0555556
        k(    3) = (  -0.0000000   0.0000000   0.3333333), wk =   0.0555556
        k(    4) = (   0.0000000   0.0000000  -0.5000000), wk =   0.0277778
        k(    5) = (   0.0000000   0.1666667   0.1666667), wk =   0.0555556
        k(    6) = (   0.0000000   0.1666667   0.3333333), wk =   0.1111111
        k(    7) = (   0.0000000   0.1666667  -0.5000000), wk =   0.1111111
        k(    8) = (   0.0000000   0.1666667  -0.3333333), wk =   0.1111111
        k(    9) = (   0.0000000   0.1666667  -0.1666667), wk =   0.0555556
        k(   10) = (   0.0000000   0.3333333   0.3333333), wk =   0.0555556
        k(   11) = (   0.0000000   0.3333333  -0.5000000), wk =   0.1111111
        k(   12) = (   0.0000000   0.3333333  -0.3333333), wk =   0.0555556
        k(   13) = (  -0.0000000  -0.5000000  -0.5000000), wk =   0.0277778
        k(   14) = (   0.1666667   0.1666667   0.1666667), wk =   0.0185185
        k(   15) = (   0.1666667   0.1666667   0.3333333), wk =   0.0555556
        k(   16) = (   0.1666667   0.1666667  -0.5000000), wk =   0.0555556
        k(   17) = (   0.1666667   0.1666667  -0.3333333), wk =   0.0555556
        k(   18) = (   0.1666667   0.1666667  -0.1666667), wk =   0.0555556
        k(   19) = (   0.1666667   0.3333333   0.3333333), wk =   0.0555556
        k(   20) = (   0.1666667   0.3333333  -0.5000000), wk =   0.1111111
        k(   21) = (   0.1666667   0.3333333  -0.3333333), wk =   0.1111111
        k(   22) = (   0.1666667   0.3333333  -0.1666667), wk =   0.1111111
        k(   23) = (   0.1666667  -0.5000000  -0.5000000), wk =   0.0555556
        k(   24) = (   0.1666667  -0.5000000  -0.3333333), wk =   0.1111111
        k(   25) = (   0.1666667  -0.5000000  -0.1666667), wk =   0.0555556
        k(   26) = (   0.1666667  -0.3333333  -0.3333333), wk =   0.0555556
        k(   27) = (   0.3333333   0.3333333   0.3333333), wk =   0.0185185
        k(   28) = (   0.3333333   0.3333333  -0.5000000), wk =   0.0555556
        k(   29) = (   0.3333333   0.3333333  -0.3333333), wk =   0.0555556
        k(   30) = (   0.3333333  -0.5000000  -0.5000000), wk =   0.0555556
        k(   31) = (   0.3333333  -0.5000000  -0.3333333), wk =   0.0555556
        k(   32) = (  -0.5000000  -0.5000000  -0.5000000), wk =   0.0092593

     Dense  grid:    93705 G-vectors     FFT dimensions: (  72,  72,  72)

     Smooth grid:    43585 G-vectors     FFT dimensions: (  54,  54,  54)

     Dynamical RAM for                 wfc:       2.83 MB

     Dynamical RAM for     wfc (w. buffer):      93.25 MB

     Dynamical RAM for           str. fact:       4.29 MB

     Dynamical RAM for           local pot:       0.00 MB

     Dynamical RAM for          nlocal pot:       8.48 MB

     Dynamical RAM for                qrad:       4.82 MB

     Dynamical RAM for          rho,v,vnew:      12.83 MB

     Dynamical RAM for               rhoin:       4.28 MB

     Dynamical RAM for            rho*nmix:      22.88 MB

     Dynamical RAM for           G-vectors:       5.69 MB

     Dynamical RAM for          h,s,v(r/c):       0.21 MB

     Dynamical RAM for          <psi|beta>:       0.05 MB

     Dynamical RAM for                 psi:       5.65 MB

     Dynamical RAM for                hpsi:       5.65 MB

     Dynamical RAM for                spsi:       5.65 MB

     Dynamical RAM for      wfcinit/wfcrot:       5.68 MB

     Dynamical RAM for           addusdens:     274.53 MB

     Dynamical RAM for          addusforce:     289.56 MB

     Dynamical RAM for         addusstress:     287.39 MB

     Estimated static dynamical RAM per process >     153.60 MB

     Estimated max dynamical RAM per process >     466.04 MB

     Check: negative core charge=   -0.000005

     Initial potential from superposition of free atoms

     starting charge      67.0945, renormalised to      68.0000
     Starting wfcs are   54 randomized atomic wfcs
     Checking if some PAW data can be deallocated... 

     total cpu time spent up to now is        1.1 secs

     per-process dynamical memory:   553.1 Mb

     Self-consistent Calculation
[tb_dev] Currently allocated     1.86E+00 Mbytes, locked:    0 /   3
[tb_pin] Currently allocated     0.00E+00 Mbytes, locked:    0 /   0

     iteration #  1     ecut=    60.00 Ry     beta= 0.70
     Davidson diagonalization with overlap

---- Real-time Memory Report at c_bands before calling an iterative solver
           978 MiB given to the printing process from OS
           540 MiB allocation reported by mallinfo(arena+hblkhd)
       1521851 MiB available memory on the node where the printing process lives
     GPU memory used/free/total (MiB): 2269 / 180372 / 182642
------------------
     ethr =  1.00E-02,  avg # of iterations =  1.5

     total cpu time spent up to now is        1.6 secs

     total energy              =    -934.53423334 Ry
     estimated scf accuracy    <       4.29245906 Ry
[tb_dev] Currently allocated     0.00E+00 Mbytes, locked:    0 /   0
[tb_pin] Currently allocated     0.00E+00 Mbytes, locked:    0 /   0

     iteration #  2     ecut=    60.00 Ry     beta= 0.70
     Davidson diagonalization with overlap

---- Real-time Memory Report at c_bands before calling an iterative solver
          1029 MiB given to the printing process from OS
           614 MiB allocation reported by mallinfo(arena+hblkhd)
       1521713 MiB available memory on the node where the printing process lives
     GPU memory used/free/total (MiB): 2269 / 180372 / 182642
------------------
     ethr =  6.31E-03,  avg # of iterations =  8.1

     total cpu time spent up to now is        2.7 secs

     total energy              =    -934.32712438 Ry
     estimated scf accuracy    <      13.13215755 Ry
[tb_dev] Currently allocated     0.00E+00 Mbytes, locked:    0 /   0
[tb_pin] Currently allocated     0.00E+00 Mbytes, locked:    0 /   0

     iteration #  3     ecut=    60.00 Ry     beta= 0.70
     Davidson diagonalization with overlap

---- Real-time Memory Report at c_bands before calling an iterative solver
          1037 MiB given to the printing process from OS
           618 MiB allocation reported by mallinfo(arena+hblkhd)
       1521657 MiB available memory on the node where the printing process lives
     GPU memory used/free/total (MiB): 2271 / 180370 / 182642
------------------
     ethr =  6.31E-03,  avg # of iterations =  5.1

     total cpu time spent up to now is        3.5 secs

     total energy              =    -936.65161436 Ry
     estimated scf accuracy    <       0.07167172 Ry
[tb_dev] Currently allocated     0.00E+00 Mbytes, locked:    0 /   0
[tb_pin] Currently allocated     0.00E+00 Mbytes, locked:    0 /   0

     iteration #  4     ecut=    60.00 Ry     beta= 0.70
     Davidson diagonalization with overlap

---- Real-time Memory Report at c_bands before calling an iterative solver
          1040 MiB given to the printing process from OS
           619 MiB allocation reported by mallinfo(arena+hblkhd)
       1521658 MiB available memory on the node where the printing process lives
     GPU memory used/free/total (MiB): 2271 / 180370 / 182642
------------------
     ethr =  1.05E-04,  avg # of iterations =  8.8

     total cpu time spent up to now is        4.6 secs

     total energy              =    -936.71355193 Ry
     estimated scf accuracy    <       0.30610577 Ry
[tb_dev] Currently allocated     0.00E+00 Mbytes, locked:    0 /   0
[tb_pin] Currently allocated     0.00E+00 Mbytes, locked:    0 /   0

     iteration #  5     ecut=    60.00 Ry     beta= 0.70
     Davidson diagonalization with overlap

---- Real-time Memory Report at c_bands before calling an iterative solver
          1041 MiB given to the printing process from OS
           621 MiB allocation reported by mallinfo(arena+hblkhd)
       1522331 MiB available memory on the node where the printing process lives
     GPU memory used/free/total (MiB): 2271 / 180370 / 182642
------------------
     ethr =  1.05E-04,  avg # of iterations =  7.2

     total cpu time spent up to now is        5.6 secs

     total energy              =    -936.82243069 Ry
     estimated scf accuracy    <       0.14969367 Ry
[tb_dev] Currently allocated     0.00E+00 Mbytes, locked:    0 /   0
[tb_pin] Currently allocated     0.00E+00 Mbytes, locked:    0 /   0

     iteration #  6     ecut=    60.00 Ry     beta= 0.70
     Davidson diagonalization with overlap

---- Real-time Memory Report at c_bands before calling an iterative solver
          1043 MiB given to the printing process from OS
           624 MiB allocation reported by mallinfo(arena+hblkhd)
       1518739 MiB available memory on the node where the printing process lives
     GPU memory used/free/total (MiB): 2271 / 180370 / 182642
------------------
     ethr =  1.05E-04,  avg # of iterations =  2.7

     total cpu time spent up to now is        6.1 secs

     total energy              =    -936.81122979 Ry
     estimated scf accuracy    <       0.04151118 Ry
[tb_dev] Currently allocated     0.00E+00 Mbytes, locked:    0 /   0
[tb_pin] Currently allocated     0.00E+00 Mbytes, locked:    0 /   0

     iteration #  7     ecut=    60.00 Ry     beta= 0.70
     Davidson diagonalization with overlap

---- Real-time Memory Report at c_bands before calling an iterative solver
          1044 MiB given to the printing process from OS
           624 MiB allocation reported by mallinfo(arena+hblkhd)
       1515534 MiB available memory on the node where the printing process lives
     GPU memory used/free/total (MiB): 2271 / 180370 / 182642
------------------
     ethr =  6.10E-05,  avg # of iterations =  5.4

     total cpu time spent up to now is        6.9 secs

     total energy              =    -936.83154940 Ry
     estimated scf accuracy    <       0.01164522 Ry
[tb_dev] Currently allocated     0.00E+00 Mbytes, locked:    0 /   0
[tb_pin] Currently allocated     0.00E+00 Mbytes, locked:    0 /   0

     iteration #  8     ecut=    60.00 Ry     beta= 0.70
     Davidson diagonalization with overlap

---- Real-time Memory Report at c_bands before calling an iterative solver
          1046 MiB given to the printing process from OS
           627 MiB allocation reported by mallinfo(arena+hblkhd)
       1510832 MiB available memory on the node where the printing process lives
     GPU memory used/free/total (MiB): 2271 / 180370 / 182642
------------------
     ethr =  1.71E-05,  avg # of iterations =  1.5

     total cpu time spent up to now is        7.3 secs

     total energy              =    -936.83002179 Ry
     estimated scf accuracy    <       0.00622390 Ry
[tb_dev] Currently allocated     0.00E+00 Mbytes, locked:    0 /   0
[tb_pin] Currently allocated     0.00E+00 Mbytes, locked:    0 /   0

     iteration #  9     ecut=    60.00 Ry     beta= 0.70
     Davidson diagonalization with overlap

---- Real-time Memory Report at c_bands before calling an iterative solver
          1048 MiB given to the printing process from OS
           628 MiB allocation reported by mallinfo(arena+hblkhd)
       1508234 MiB available memory on the node where the printing process lives
     GPU memory used/free/total (MiB): 2271 / 180370 / 182642
------------------
     ethr =  9.15E-06,  avg # of iterations =  3.2

     total cpu time spent up to now is        7.9 secs

     total energy              =    -936.83039097 Ry
     estimated scf accuracy    <       0.00099628 Ry
[tb_dev] Currently allocated     0.00E+00 Mbytes, locked:    0 /   0
[tb_pin] Currently allocated     0.00E+00 Mbytes, locked:    0 /   0

     iteration # 10     ecut=    60.00 Ry     beta= 0.70
     Davidson diagonalization with overlap

---- Real-time Memory Report at c_bands before calling an iterative solver
          1049 MiB given to the printing process from OS
           628 MiB allocation reported by mallinfo(arena+hblkhd)
       1508197 MiB available memory on the node where the printing process lives
     GPU memory used/free/total (MiB): 2271 / 180370 / 182642
------------------
     ethr =  1.47E-06,  avg # of iterations =  5.7

     total cpu time spent up to now is        8.7 secs

     total energy              =    -936.83095487 Ry
     estimated scf accuracy    <       0.00020366 Ry
[tb_dev] Currently allocated     0.00E+00 Mbytes, locked:    0 /   0
[tb_pin] Currently allocated     0.00E+00 Mbytes, locked:    0 /   0

     iteration # 11     ecut=    60.00 Ry     beta= 0.70
     Davidson diagonalization with overlap

---- Real-time Memory Report at c_bands before calling an iterative solver
          1050 MiB given to the printing process from OS
           628 MiB allocation reported by mallinfo(arena+hblkhd)
       1508204 MiB available memory on the node where the printing process lives
     GPU memory used/free/total (MiB): 2271 / 180370 / 182642
------------------
     ethr =  3.00E-07,  avg # of iterations =  2.0

     total cpu time spent up to now is        9.1 secs

     total energy              =    -936.83095402 Ry
     estimated scf accuracy    <       0.00003309 Ry
[tb_dev] Currently allocated     0.00E+00 Mbytes, locked:    0 /   0
[tb_pin] Currently allocated     0.00E+00 Mbytes, locked:    0 /   0

     iteration # 12     ecut=    60.00 Ry     beta= 0.70
     Davidson diagonalization with overlap

---- Real-time Memory Report at c_bands before calling an iterative solver
          1050 MiB given to the printing process from OS
           628 MiB allocation reported by mallinfo(arena+hblkhd)
       1520505 MiB available memory on the node where the printing process lives
     GPU memory used/free/total (MiB): 2271 / 180370 / 182642
------------------
     ethr =  4.87E-08,  avg # of iterations =  6.3

     total cpu time spent up to now is       10.0 secs

     total energy              =    -936.83098311 Ry
     estimated scf accuracy    <       0.00008360 Ry
[tb_dev] Currently allocated     0.00E+00 Mbytes, locked:    0 /   0
[tb_pin] Currently allocated     0.00E+00 Mbytes, locked:    0 /   0

     iteration # 13     ecut=    60.00 Ry     beta= 0.70
     Davidson diagonalization with overlap

---- Real-time Memory Report at c_bands before calling an iterative solver
          1050 MiB given to the printing process from OS
           628 MiB allocation reported by mallinfo(arena+hblkhd)
       1520410 MiB available memory on the node where the printing process lives
     GPU memory used/free/total (MiB): 2271 / 180370 / 182642
------------------
     ethr =  4.87E-08,  avg # of iterations =  2.0

     total cpu time spent up to now is       10.5 secs

     total energy              =    -936.83097814 Ry
     estimated scf accuracy    <       0.00003350 Ry
[tb_dev] Currently allocated     0.00E+00 Mbytes, locked:    0 /   0
[tb_pin] Currently allocated     0.00E+00 Mbytes, locked:    0 /   0

     iteration # 14     ecut=    60.00 Ry     beta= 0.70
     Davidson diagonalization with overlap

---- Real-time Memory Report at c_bands before calling an iterative solver
          1050 MiB given to the printing process from OS
           628 MiB allocation reported by mallinfo(arena+hblkhd)
       1520435 MiB available memory on the node where the printing process lives
     GPU memory used/free/total (MiB): 2271 / 180370 / 182642
------------------
     ethr =  4.87E-08,  avg # of iterations =  3.0

     total cpu time spent up to now is       11.0 secs

     total energy              =    -936.83098114 Ry
     estimated scf accuracy    <       0.00000978 Ry
[tb_dev] Currently allocated     0.00E+00 Mbytes, locked:    0 /   0
[tb_pin] Currently allocated     0.00E+00 Mbytes, locked:    0 /   0

     iteration # 15     ecut=    60.00 Ry     beta= 0.70
     Davidson diagonalization with overlap

---- Real-time Memory Report at c_bands before calling an iterative solver
          1050 MiB given to the printing process from OS
           628 MiB allocation reported by mallinfo(arena+hblkhd)
       1520438 MiB available memory on the node where the printing process lives
     GPU memory used/free/total (MiB): 2271 / 180370 / 182642
------------------
     ethr =  1.44E-08,  avg # of iterations =  4.8

     total cpu time spent up to now is       11.7 secs

     total energy              =    -936.83098335 Ry
     estimated scf accuracy    <       0.00000137 Ry
[tb_dev] Currently allocated     0.00E+00 Mbytes, locked:    0 /   0
[tb_pin] Currently allocated     0.00E+00 Mbytes, locked:    0 /   0

     iteration # 16     ecut=    60.00 Ry     beta= 0.70
     Davidson diagonalization with overlap

---- Real-time Memory Report at c_bands before calling an iterative solver
          1050 MiB given to the printing process from OS
           628 MiB allocation reported by mallinfo(arena+hblkhd)
       1519183 MiB available memory on the node where the printing process lives
     GPU memory used/free/total (MiB): 2271 / 180370 / 182642
------------------
     ethr =  2.01E-09,  avg # of iterations =  3.9

     total cpu time spent up to now is       12.3 secs

     total energy              =    -936.83098353 Ry
     estimated scf accuracy    <       0.00000110 Ry
[tb_dev] Currently allocated     0.00E+00 Mbytes, locked:    0 /   0
[tb_pin] Currently allocated     0.00E+00 Mbytes, locked:    0 /   0

     iteration # 17     ecut=    60.00 Ry     beta= 0.70
     Davidson diagonalization with overlap

---- Real-time Memory Report at c_bands before calling an iterative solver
          1050 MiB given to the printing process from OS
           628 MiB allocation reported by mallinfo(arena+hblkhd)
       1515977 MiB available memory on the node where the printing process lives
     GPU memory used/free/total (MiB): 2271 / 180370 / 182642
------------------
     ethr =  1.62E-09,  avg # of iterations =  1.0

     total cpu time spent up to now is       12.7 secs

     total energy              =    -936.83098350 Ry
     estimated scf accuracy    <       0.00000112 Ry
[tb_dev] Currently allocated     0.00E+00 Mbytes, locked:    0 /   0
[tb_pin] Currently allocated     0.00E+00 Mbytes, locked:    0 /   0

     iteration # 18     ecut=    60.00 Ry     beta= 0.70
     Davidson diagonalization with overlap

---- Real-time Memory Report at c_bands before calling an iterative solver
          1050 MiB given to the printing process from OS
           628 MiB allocation reported by mallinfo(arena+hblkhd)
       1513390 MiB available memory on the node where the printing process lives
     GPU memory used/free/total (MiB): 2271 / 180370 / 182642
------------------
     ethr =  1.62E-09,  avg # of iterations =  1.0

     total cpu time spent up to now is       13.1 secs

     total energy              =    -936.83098345 Ry
     estimated scf accuracy    <       0.00000104 Ry
[tb_dev] Currently allocated     0.00E+00 Mbytes, locked:    0 /   0
[tb_pin] Currently allocated     0.00E+00 Mbytes, locked:    0 /   0

     iteration # 19     ecut=    60.00 Ry     beta= 0.70
     Davidson diagonalization with overlap

---- Real-time Memory Report at c_bands before calling an iterative solver
          1050 MiB given to the printing process from OS
           628 MiB allocation reported by mallinfo(arena+hblkhd)
       1511912 MiB available memory on the node where the printing process lives
     GPU memory used/free/total (MiB): 2271 / 180370 / 182642
------------------
     ethr =  1.53E-09,  avg # of iterations =  1.0

     total cpu time spent up to now is       13.5 secs

     total energy              =    -936.83098342 Ry
     estimated scf accuracy    <       0.00000087 Ry
[tb_dev] Currently allocated     0.00E+00 Mbytes, locked:    0 /   0
[tb_pin] Currently allocated     0.00E+00 Mbytes, locked:    0 /   0

     iteration # 20     ecut=    60.00 Ry     beta= 0.70
     Davidson diagonalization with overlap

---- Real-time Memory Report at c_bands before calling an iterative solver
          1050 MiB given to the printing process from OS
           628 MiB allocation reported by mallinfo(arena+hblkhd)
       1509482 MiB available memory on the node where the printing process lives
     GPU memory used/free/total (MiB): 2271 / 180370 / 182642
------------------
     ethr =  1.28E-09,  avg # of iterations =  1.0

     total cpu time spent up to now is       13.9 secs

     total energy              =    -936.83098340 Ry
     estimated scf accuracy    <       0.00000075 Ry
[tb_dev] Currently allocated     0.00E+00 Mbytes, locked:    0 /   0
[tb_pin] Currently allocated     0.00E+00 Mbytes, locked:    0 /   0

     iteration # 21     ecut=    60.00 Ry     beta= 0.70
     Davidson diagonalization with overlap

---- Real-time Memory Report at c_bands before calling an iterative solver
          1050 MiB given to the printing process from OS
           628 MiB allocation reported by mallinfo(arena+hblkhd)
       1509103 MiB available memory on the node where the printing process lives
     GPU memory used/free/total (MiB): 2271 / 180370 / 182642
------------------
     ethr =  1.10E-09,  avg # of iterations =  1.0

     total cpu time spent up to now is       14.3 secs

     total energy              =    -936.83098339 Ry
     estimated scf accuracy    <       0.00000067 Ry
[tb_dev] Currently allocated     0.00E+00 Mbytes, locked:    0 /   0
[tb_pin] Currently allocated     0.00E+00 Mbytes, locked:    0 /   0

     iteration # 22     ecut=    60.00 Ry     beta= 0.70
     Davidson diagonalization with overlap

---- Real-time Memory Report at c_bands before calling an iterative solver
          1050 MiB given to the printing process from OS
           628 MiB allocation reported by mallinfo(arena+hblkhd)
       1509103 MiB available memory on the node where the printing process lives
     GPU memory used/free/total (MiB): 2271 / 180370 / 182642
------------------
     ethr =  9.90E-10,  avg # of iterations =  1.0

     total cpu time spent up to now is       14.7 secs

     total energy              =    -936.83098342 Ry
     estimated scf accuracy    <       0.00000059 Ry
[tb_dev] Currently allocated     0.00E+00 Mbytes, locked:    0 /   0
[tb_pin] Currently allocated     0.00E+00 Mbytes, locked:    0 /   0

     iteration # 23     ecut=    60.00 Ry     beta= 0.70
     Davidson diagonalization with overlap

---- Real-time Memory Report at c_bands before calling an iterative solver
          1050 MiB given to the printing process from OS
           628 MiB allocation reported by mallinfo(arena+hblkhd)
       1509115 MiB available memory on the node where the printing process lives
     GPU memory used/free/total (MiB): 2271 / 180370 / 182642
------------------
     ethr =  8.74E-10,  avg # of iterations =  1.0

     total cpu time spent up to now is       15.1 secs

     total energy              =    -936.83098306 Ry
     estimated scf accuracy    <       0.00000062 Ry
[tb_dev] Currently allocated     0.00E+00 Mbytes, locked:    0 /   0
[tb_pin] Currently allocated     0.00E+00 Mbytes, locked:    0 /   0

     iteration # 24     ecut=    60.00 Ry     beta= 0.70
     Davidson diagonalization with overlap

---- Real-time Memory Report at c_bands before calling an iterative solver
          1050 MiB given to the printing process from OS
           628 MiB allocation reported by mallinfo(arena+hblkhd)
       1512056 MiB available memory on the node where the printing process lives
     GPU memory used/free/total (MiB): 2271 / 180370 / 182642
------------------
     ethr =  8.74E-10,  avg # of iterations =  4.3

     total cpu time spent up to now is       15.8 secs

     total energy              =    -936.83098335 Ry
     estimated scf accuracy    <       0.00000009 Ry
[tb_dev] Currently allocated     0.00E+00 Mbytes, locked:    0 /   0
[tb_pin] Currently allocated     0.00E+00 Mbytes, locked:    0 /   0

     iteration # 25     ecut=    60.00 Ry     beta= 0.70
     Davidson diagonalization with overlap

---- Real-time Memory Report at c_bands before calling an iterative solver
          1050 MiB given to the printing process from OS
           628 MiB allocation reported by mallinfo(arena+hblkhd)
       1521198 MiB available memory on the node where the printing process lives
     GPU memory used/free/total (MiB): 2271 / 180370 / 182642
------------------
     ethr =  1.27E-10,  avg # of iterations =  4.8

     total cpu time spent up to now is       16.5 secs

     total energy              =    -936.83098333 Ry
     estimated scf accuracy    <       0.00000027 Ry
[tb_dev] Currently allocated     0.00E+00 Mbytes, locked:    0 /   0
[tb_pin] Currently allocated     0.00E+00 Mbytes, locked:    0 /   0

     iteration # 26     ecut=    60.00 Ry     beta= 0.70
     Davidson diagonalization with overlap

---- Real-time Memory Report at c_bands before calling an iterative solver
          1050 MiB given to the printing process from OS
           628 MiB allocation reported by mallinfo(arena+hblkhd)
       1521868 MiB available memory on the node where the printing process lives
     GPU memory used/free/total (MiB): 2271 / 180370 / 182642
------------------
     ethr =  1.27E-10,  avg # of iterations =  2.0

     total cpu time spent up to now is       16.9 secs

     total energy              =    -936.83098332 Ry
     estimated scf accuracy    <       0.00000015 Ry
[tb_dev] Currently allocated     0.00E+00 Mbytes, locked:    0 /   0
[tb_pin] Currently allocated     0.00E+00 Mbytes, locked:    0 /   0

     iteration # 27     ecut=    60.00 Ry     beta= 0.70
     Davidson diagonalization with overlap

---- Real-time Memory Report at c_bands before calling an iterative solver
          1050 MiB given to the printing process from OS
           628 MiB allocation reported by mallinfo(arena+hblkhd)
       1521870 MiB available memory on the node where the printing process lives
     GPU memory used/free/total (MiB): 2271 / 180370 / 182642
------------------
     ethr =  1.27E-10,  avg # of iterations =  1.0

     total cpu time spent up to now is       17.3 secs

     total energy              =    -936.83098332 Ry
     estimated scf accuracy    <       0.00000011 Ry
[tb_dev] Currently allocated     0.00E+00 Mbytes, locked:    0 /   0
[tb_pin] Currently allocated     0.00E+00 Mbytes, locked:    0 /   0

     iteration # 28     ecut=    60.00 Ry     beta= 0.70
     Davidson diagonalization with overlap

---- Real-time Memory Report at c_bands before calling an iterative solver
          1050 MiB given to the printing process from OS
           628 MiB allocation reported by mallinfo(arena+hblkhd)
       1522113 MiB available memory on the node where the printing process lives
     GPU memory used/free/total (MiB): 2271 / 180370 / 182642
------------------
     ethr =  1.27E-10,  avg # of iterations =  1.0

     total cpu time spent up to now is       17.7 secs

     total energy              =    -936.83098332 Ry
     estimated scf accuracy    <       0.00000010 Ry
[tb_dev] Currently allocated     0.00E+00 Mbytes, locked:    0 /   0
[tb_pin] Currently allocated     0.00E+00 Mbytes, locked:    0 /   0

     iteration # 29     ecut=    60.00 Ry     beta= 0.70
     Davidson diagonalization with overlap

---- Real-time Memory Report at c_bands before calling an iterative solver
          1050 MiB given to the printing process from OS
           628 MiB allocation reported by mallinfo(arena+hblkhd)
       1521397 MiB available memory on the node where the printing process lives
     GPU memory used/free/total (MiB): 2271 / 180370 / 182642
------------------
     ethr =  1.27E-10,  avg # of iterations =  1.0

     total cpu time spent up to now is       18.1 secs

     total energy              =    -936.83098332 Ry
     estimated scf accuracy    <       0.00000008 Ry
[tb_dev] Currently allocated     0.00E+00 Mbytes, locked:    0 /   0
[tb_pin] Currently allocated     0.00E+00 Mbytes, locked:    0 /   0

     iteration # 30     ecut=    60.00 Ry     beta= 0.70
     Davidson diagonalization with overlap

---- Real-time Memory Report at c_bands before calling an iterative solver
          1050 MiB given to the printing process from OS
           628 MiB allocation reported by mallinfo(arena+hblkhd)
       1519993 MiB available memory on the node where the printing process lives
     GPU memory used/free/total (MiB): 2271 / 180370 / 182642
------------------
     ethr =  1.22E-10,  avg # of iterations =  1.0

     total cpu time spent up to now is       18.5 secs

     total energy              =    -936.83098332 Ry
     estimated scf accuracy    <       0.00000007 Ry
[tb_dev] Currently allocated     0.00E+00 Mbytes, locked:    0 /   0
[tb_pin] Currently allocated     0.00E+00 Mbytes, locked:    0 /   0

     iteration # 31     ecut=    60.00 Ry     beta= 0.70
     Davidson diagonalization with overlap

---- Real-time Memory Report at c_bands before calling an iterative solver
          1050 MiB given to the printing process from OS
           628 MiB allocation reported by mallinfo(arena+hblkhd)
       1517391 MiB available memory on the node where the printing process lives
     GPU memory used/free/total (MiB): 2271 / 180370 / 182642
------------------
     ethr =  1.01E-10,  avg # of iterations =  1.0

     total cpu time spent up to now is       18.9 secs

     total energy              =    -936.83098331 Ry
     estimated scf accuracy    <       0.00000006 Ry
[tb_dev] Currently allocated     0.00E+00 Mbytes, locked:    0 /   0
[tb_pin] Currently allocated     0.00E+00 Mbytes, locked:    0 /   0

     iteration # 32     ecut=    60.00 Ry     beta= 0.70
     Davidson diagonalization with overlap

---- Real-time Memory Report at c_bands before calling an iterative solver
          1050 MiB given to the printing process from OS
           628 MiB allocation reported by mallinfo(arena+hblkhd)
       1516639 MiB available memory on the node where the printing process lives
     GPU memory used/free/total (MiB): 2271 / 180370 / 182642
------------------
     ethr =  9.04E-11,  avg # of iterations =  1.1

     total cpu time spent up to now is       19.3 secs

     total energy              =    -936.83098330 Ry
     estimated scf accuracy    <       0.00000004 Ry
[tb_dev] Currently allocated     0.00E+00 Mbytes, locked:    0 /   0
[tb_pin] Currently allocated     0.00E+00 Mbytes, locked:    0 /   0

     iteration # 33     ecut=    60.00 Ry     beta= 0.70
     Davidson diagonalization with overlap

---- Real-time Memory Report at c_bands before calling an iterative solver
          1050 MiB given to the printing process from OS
           628 MiB allocation reported by mallinfo(arena+hblkhd)
       1515972 MiB available memory on the node where the printing process lives
     GPU memory used/free/total (MiB): 2271 / 180370 / 182642
------------------
     ethr =  5.79E-11,  avg # of iterations =  5.1

     total cpu time spent up to now is       20.0 secs

     total energy              =    -936.83098331 Ry
     estimated scf accuracy    <          5.4E-09 Ry
[tb_dev] Currently allocated     0.00E+00 Mbytes, locked:    0 /   0
[tb_pin] Currently allocated     0.00E+00 Mbytes, locked:    0 /   0

     iteration # 34     ecut=    60.00 Ry     beta= 0.70
     Davidson diagonalization with overlap

---- Real-time Memory Report at c_bands before calling an iterative solver
          1050 MiB given to the printing process from OS
           628 MiB allocation reported by mallinfo(arena+hblkhd)
       1521045 MiB available memory on the node where the printing process lives
     GPU memory used/free/total (MiB): 2271 / 180370 / 182642
------------------
     ethr =  7.98E-12,  avg # of iterations =  6.3

     total cpu time spent up to now is       20.9 secs

     total energy              =    -936.83098331 Ry
     estimated scf accuracy    <       0.00000001 Ry
[tb_dev] Currently allocated     0.00E+00 Mbytes, locked:    0 /   0
[tb_pin] Currently allocated     0.00E+00 Mbytes, locked:    0 /   0

     iteration # 35     ecut=    60.00 Ry     beta= 0.70
     Davidson diagonalization with overlap

---- Real-time Memory Report at c_bands before calling an iterative solver
          1050 MiB given to the printing process from OS
           628 MiB allocation reported by mallinfo(arena+hblkhd)
       1521562 MiB available memory on the node where the printing process lives
     GPU memory used/free/total (MiB): 2271 / 180370 / 182642
------------------
     ethr =  7.98E-12,  avg # of iterations =  2.9

     total cpu time spent up to now is       21.5 secs

     total energy              =    -936.83098331 Ry
     estimated scf accuracy    <          3.3E-09 Ry
[tb_dev] Currently allocated     0.00E+00 Mbytes, locked:    0 /   0
[tb_pin] Currently allocated     0.00E+00 Mbytes, locked:    0 /   0

     iteration # 36     ecut=    60.00 Ry     beta= 0.70
     Davidson diagonalization with overlap

---- Real-time Memory Report at c_bands before calling an iterative solver
          1050 MiB given to the printing process from OS
           628 MiB allocation reported by mallinfo(arena+hblkhd)
       1521924 MiB available memory on the node where the printing process lives
     GPU memory used/free/total (MiB): 2271 / 180370 / 182642
------------------
     ethr =  4.81E-12,  avg # of iterations =  5.0

     total cpu time spent up to now is       22.2 secs

     total energy              =    -936.83098331 Ry
     estimated scf accuracy    <          2.5E-10 Ry
[tb_dev] Currently allocated     0.00E+00 Mbytes, locked:    0 /   0
[tb_pin] Currently allocated     0.00E+00 Mbytes, locked:    0 /   0

     iteration # 37     ecut=    60.00 Ry     beta= 0.70
     Davidson diagonalization with overlap

---- Real-time Memory Report at c_bands before calling an iterative solver
          1050 MiB given to the printing process from OS
           628 MiB allocation reported by mallinfo(arena+hblkhd)
       1521619 MiB available memory on the node where the printing process lives
     GPU memory used/free/total (MiB): 2271 / 180370 / 182642
------------------
     ethr =  3.67E-13,  avg # of iterations =  5.1

     total cpu time spent up to now is       22.9 secs

     total energy              =    -936.83098331 Ry
     estimated scf accuracy    <          4.6E-10 Ry
[tb_dev] Currently allocated     0.00E+00 Mbytes, locked:    0 /   0
[tb_pin] Currently allocated     0.00E+00 Mbytes, locked:    0 /   0

     iteration # 38     ecut=    60.00 Ry     beta= 0.70
     Davidson diagonalization with overlap

---- Real-time Memory Report at c_bands before calling an iterative solver
          1050 MiB given to the printing process from OS
           628 MiB allocation reported by mallinfo(arena+hblkhd)
       1521762 MiB available memory on the node where the printing process lives
     GPU memory used/free/total (MiB): 2271 / 180370 / 182642
------------------
     ethr =  3.67E-13,  avg # of iterations =  2.8

     total cpu time spent up to now is       23.4 secs

     total energy              =    -936.83098331 Ry
     estimated scf accuracy    <          9.0E-11 Ry
[tb_dev] Currently allocated     0.00E+00 Mbytes, locked:    0 /   0
[tb_pin] Currently allocated     0.00E+00 Mbytes, locked:    0 /   0

     iteration # 39     ecut=    60.00 Ry     beta= 0.70
     Davidson diagonalization with overlap

---- Real-time Memory Report at c_bands before calling an iterative solver
          1050 MiB given to the printing process from OS
           628 MiB allocation reported by mallinfo(arena+hblkhd)
       1521823 MiB available memory on the node where the printing process lives
     GPU memory used/free/total (MiB): 2271 / 180370 / 182642
------------------
     ethr =  1.32E-13,  avg # of iterations =  6.0

     total cpu time spent up to now is       24.3 secs

     total energy              =    -936.83098331 Ry
     estimated scf accuracy    <          9.1E-11 Ry
[tb_dev] Currently allocated     0.00E+00 Mbytes, locked:    0 /   0
[tb_pin] Currently allocated     0.00E+00 Mbytes, locked:    0 /   0

     iteration # 40     ecut=    60.00 Ry     beta= 0.70
     Davidson diagonalization with overlap

---- Real-time Memory Report at c_bands before calling an iterative solver
          1050 MiB given to the printing process from OS
           628 MiB allocation reported by mallinfo(arena+hblkhd)
       1521847 MiB available memory on the node where the printing process lives
     GPU memory used/free/total (MiB): 2271 / 180370 / 182642
------------------
     ethr =  1.32E-13,  avg # of iterations =  1.0

     total cpu time spent up to now is       24.7 secs

     total energy              =    -936.83098331 Ry
     estimated scf accuracy    <          7.8E-11 Ry
[tb_dev] Currently allocated     0.00E+00 Mbytes, locked:    0 /   0
[tb_pin] Currently allocated     0.00E+00 Mbytes, locked:    0 /   0

     iteration # 41     ecut=    60.00 Ry     beta= 0.70
     Davidson diagonalization with overlap

---- Real-time Memory Report at c_bands before calling an iterative solver
          1050 MiB given to the printing process from OS
           628 MiB allocation reported by mallinfo(arena+hblkhd)
       1521794 MiB available memory on the node where the printing process lives
     GPU memory used/free/total (MiB): 2271 / 180370 / 182642
------------------
     ethr =  1.15E-13,  avg # of iterations =  2.0

     total cpu time spent up to now is       25.2 secs

     total energy              =    -936.83098331 Ry
     estimated scf accuracy    <          2.4E-11 Ry
[tb_dev] Currently allocated     0.00E+00 Mbytes, locked:    0 /   0
[tb_pin] Currently allocated     0.00E+00 Mbytes, locked:    0 /   0

     iteration # 42     ecut=    60.00 Ry     beta= 0.70
     Davidson diagonalization with overlap

---- Real-time Memory Report at c_bands before calling an iterative solver
          1050 MiB given to the printing process from OS
           628 MiB allocation reported by mallinfo(arena+hblkhd)
       1521691 MiB available memory on the node where the printing process lives
     GPU memory used/free/total (MiB): 2271 / 180370 / 182642
------------------
     ethr =  1.00E-13,  avg # of iterations =  1.0

     total cpu time spent up to now is       25.6 secs

     total energy              =    -936.83098331 Ry
     estimated scf accuracy    <          2.7E-11 Ry
[tb_dev] Currently allocated     0.00E+00 Mbytes, locked:    0 /   0
[tb_pin] Currently allocated     0.00E+00 Mbytes, locked:    0 /   0

     iteration # 43     ecut=    60.00 Ry     beta= 0.70
     Davidson diagonalization with overlap

---- Real-time Memory Report at c_bands before calling an iterative solver
          1050 MiB given to the printing process from OS
           628 MiB allocation reported by mallinfo(arena+hblkhd)
       1520548 MiB available memory on the node where the printing process lives
     GPU memory used/free/total (MiB): 2271 / 180370 / 182642
------------------
     ethr =  1.00E-13,  avg # of iterations =  1.0

     total cpu time spent up to now is       26.0 secs

     total energy              =    -936.83098331 Ry
     estimated scf accuracy    <          2.5E-11 Ry
[tb_dev] Currently allocated     0.00E+00 Mbytes, locked:    0 /   0
[tb_pin] Currently allocated     0.00E+00 Mbytes, locked:    0 /   0

     iteration # 44     ecut=    60.00 Ry     beta= 0.70
     Davidson diagonalization with overlap

---- Real-time Memory Report at c_bands before calling an iterative solver
          1050 MiB given to the printing process from OS
           628 MiB allocation reported by mallinfo(arena+hblkhd)
       1518947 MiB available memory on the node where the printing process lives
     GPU memory used/free/total (MiB): 2271 / 180370 / 182642
------------------
     ethr =  1.00E-13,  avg # of iterations =  1.0

     total cpu time spent up to now is       26.4 secs

     total energy              =    -936.83098331 Ry
     estimated scf accuracy    <          4.6E-12 Ry
[tb_dev] Currently allocated     0.00E+00 Mbytes, locked:    0 /   0
[tb_pin] Currently allocated     0.00E+00 Mbytes, locked:    0 /   0

     iteration # 45     ecut=    60.00 Ry     beta= 0.70
     Davidson diagonalization with overlap

---- Real-time Memory Report at c_bands before calling an iterative solver
          1050 MiB given to the printing process from OS
           628 MiB allocation reported by mallinfo(arena+hblkhd)
       1516542 MiB available memory on the node where the printing process lives
     GPU memory used/free/total (MiB): 2271 / 180370 / 182642
------------------
     ethr =  1.00E-13,  avg # of iterations =  1.0

     total cpu time spent up to now is       26.8 secs

     total energy              =    -936.83098331 Ry
     estimated scf accuracy    <          2.4E-12 Ry
[tb_dev] Currently allocated     0.00E+00 Mbytes, locked:    0 /   0
[tb_pin] Currently allocated     0.00E+00 Mbytes, locked:    0 /   0

     iteration # 46     ecut=    60.00 Ry     beta= 0.70
     Davidson diagonalization with overlap

---- Real-time Memory Report at c_bands before calling an iterative solver
          1050 MiB given to the printing process from OS
           628 MiB allocation reported by mallinfo(arena+hblkhd)
       1514042 MiB available memory on the node where the printing process lives
     GPU memory used/free/total (MiB): 2271 / 180370 / 182642
------------------
     ethr =  1.00E-13,  avg # of iterations =  1.0

     total cpu time spent up to now is       27.2 secs

     total energy              =    -936.83098331 Ry
     estimated scf accuracy    <          1.2E-12 Ry
[tb_dev] Currently allocated     0.00E+00 Mbytes, locked:    0 /   0
[tb_pin] Currently allocated     0.00E+00 Mbytes, locked:    0 /   0

     iteration # 47     ecut=    60.00 Ry     beta= 0.70
     Davidson diagonalization with overlap

---- Real-time Memory Report at c_bands before calling an iterative solver
          1050 MiB given to the printing process from OS
           628 MiB allocation reported by mallinfo(arena+hblkhd)
       1511238 MiB available memory on the node where the printing process lives
     GPU memory used/free/total (MiB): 2271 / 180370 / 182642
------------------
     ethr =  1.00E-13,  avg # of iterations =  1.0

     total cpu time spent up to now is       27.6 secs

     End of self-consistent calculation

          k = 0.0000 0.0000 0.0000 (  5451 PWs)   bands (ev):

   -46.3172 -46.2992 -34.1870 -34.1836 -22.7431 -22.7431 -22.6672 -22.5666
   -22.5666 -22.4370  -9.4020  -8.7087  -8.7087  -7.7298  -7.4363  -7.4363
     2.9346   2.9346   3.1182   3.2694   3.2694   4.2166   5.4523   5.5416
     5.5416   6.3594   6.6172   6.6172   6.7156   6.9880   6.9880   7.1029
     7.6322   7.6322

     occupation numbers 
     1.0000   1.0000   1.0000   1.0000   1.0000   1.0000   1.0000   1.0000
     1.0000   1.0000   1.0000   1.0000   1.0000   1.0000   1.0000   1.0000
     1.0000   1.0000   1.0000   1.0000   1.0000   1.0000   1.0000   1.0000
     1.0000   1.0000   1.0000   1.0000   1.0000   1.0000   1.0000   1.0000
     1.0000   1.0000

          k =-0.0000-0.2114 0.0653 (  5424 PWs)   bands (ev):

   -46.3160 -46.3003 -34.1868 -34.1838 -22.7338 -22.7320 -22.6514 -22.5805
   -22.5793 -22.4524  -9.2833  -8.6407  -8.6393  -7.8122  -7.5535  -7.5389
     2.8807   3.0001   3.2964   3.5130   3.5354   4.2727   5.1190   5.2577
     5.3564   6.3136   6.3933   6.6508   6.6877   7.0397   7.1556   7.1909
     7.4626   7.5254

     occupation numbers 
     1.0000   1.0000   1.0000   1.0000   1.0000   1.0000   1.0000   1.0000
     1.0000   1.0000   1.0000   1.0000   1.0000   1.0000   1.0000   1.0000
     1.0000   1.0000   1.0000   1.0000   1.0000   1.0000   1.0000   1.0000
     1.0000   1.0000   1.0000   1.0000   1.0000   1.0000   1.0000   1.0000
     1.0000   1.0000

          k =-0.0000-0.4228 0.1306 (  5444 PWs)   bands (ev):

   -46.3127 -46.3036 -34.1863 -34.1845 -22.7062 -22.7013 -22.6171 -22.6134
   -22.6086 -22.4944  -8.9573  -8.4555  -8.4467  -8.0566  -7.8436  -7.7997
     3.0573   3.2478   3.5833   4.0369   4.1026   4.4030   4.4379   4.7700
     5.0438   5.6874   6.1398   6.4393   6.9641   6.9650   7.1161   7.2462
     7.3585   7.5132

     occupation numbers 
     1.0000   1.0000   1.0000   1.0000   1.0000   1.0000   1.0000   1.0000
     1.0000   1.0000   1.0000   1.0000   1.0000   1.0000   1.0000   1.0000
     1.0000   1.0000   1.0000   1.0000   1.0000   1.0000   1.0000   1.0000
     1.0000   1.0000   1.0000   1.0000   1.0000   1.0000   1.0000   1.0000
     1.0000   1.0000

          k = 0.0000 0.6341-0.1959 (  5448 PWs)   bands (ev):

   -46.3081 -46.3081 -34.1854 -34.1854 -22.6639 -22.6639 -22.6580 -22.6580
   -22.5516 -22.5516  -8.5234  -8.5234  -8.1858  -8.1858  -8.0932  -8.0932
     3.4637   3.4637   3.7535   3.7535   4.2265   4.2265   4.7367   4.7367
     5.2695   5.2695   5.7499   5.7499   7.0751   7.0751   7.2650   7.2650
     7.3904   7.3904

     occupation numbers 
     1.0000   1.0000   1.0000   1.0000   1.0000   1.0000   1.0000   1.0000
     1.0000   1.0000   1.0000   1.0000   1.0000   1.0000   1.0000   1.0000
     1.0000   1.0000   1.0000   1.0000   1.0000   1.0000   1.0000   1.0000
     1.0000   1.0000   1.0000   1.0000   1.0000   1.0000   1.0000   1.0000
     1.0000   1.0000

          k =-0.1831-0.1057 0.1306 (  5445 PWs)   bands (ev):

   -46.3157 -46.3006 -34.1868 -34.1839 -22.7464 -22.7233 -22.6382 -22.6064
   -22.5643 -22.4511  -9.2767  -8.6902  -8.5288  -7.9182  -7.5816  -7.4763
     2.9463   3.0038   3.1742   3.5461   3.6261   4.4349   4.7577   5.3985
     5.5008   6.3099   6.3470   6.6021   6.6324   6.9331   7.0809   7.1641
     7.4894   7.5500

     occupation numbers 
     1.0000   1.0000   1.0000   1.0000   1.0000   1.0000   1.0000   1.0000
     1.0000   1.0000   1.0000   1.0000   1.0000   1.0000   1.0000   1.0000
     1.0000   1.0000   1.0000   1.0000   1.0000   1.0000   1.0000   1.0000
     1.0000   1.0000   1.0000   1.0000   1.0000   1.0000   1.0000   1.0000
     1.0000   1.0000

          k =-0.1831-0.3171 0.1959 (  5444 PWs)   bands (ev):

   -46.3134 -46.3029 -34.1864 -34.1843 -22.7390 -22.7053 -22.6523 -22.5930
   -22.5761 -22.4717  -9.0874  -8.6071  -8.3107  -8.1831  -7.7132  -7.6170
     2.8834   3.1873   3.5673   3.7627   3.9419   4.2186   4.7511   4.9504
     5.4054   5.9305   6.3357   6.5506   6.6407   6.8756   6.9818   7.1971
     7.3477   7.5287

     occupation numbers 
     1.0000   1.0000   1.0000   1.0000   1.0000   1.0000   1.0000   1.0000
     1.0000   1.0000   1.0000   1.0000   1.0000   1.0000   1.0000   1.0000
     1.0000   1.0000   1.0000   1.0000   1.0000   1.0000   1.0000   1.0000
     1.0000   1.0000   1.0000   1.0000   1.0000   1.0000   1.0000   1.0000
     1.0000   1.0000

          k =-0.1831 0.7398-0.1306 (  5440 PWs)   bands (ev):

   -46.3096 -46.3066 -34.1857 -34.1851 -22.7108 -22.6983 -22.6694 -22.6113
   -22.5406 -22.5140  -8.7508  -8.5548  -8.4068  -7.9914  -7.9650  -7.8923
     3.0830   3.3423   3.5839   4.0029   4.2151   4.3679   4.5462   4.8209
     5.1206   5.5677   6.0419   6.3642   6.7602   6.9205   7.0337   7.1864
     7.3622   7.4529

     occupation numbers 
     1.0000   1.0000   1.0000   1.0000   1.0000   1.0000   1.0000   1.0000
     1.0000   1.0000   1.0000   1.0000   1.0000   1.0000   1.0000   1.0000
     1.0000   1.0000   1.0000   1.0000   1.0000   1.0000   1.0000   1.0000
     1.0000   1.0000   1.0000   1.0000   1.0000   1.0000   1.0000   1.0000
     1.0000   1.0000

          k =-0.1831 0.5284-0.0653 (  5445 PWs)   bands (ev):

   -46.3107 -46.3055 -34.1859 -34.1849 -22.7299 -22.6669 -22.6578 -22.6240
   -22.5687 -22.4968  -8.8691  -8.3909  -8.2954  -8.1947  -8.1001  -7.7058
     3.0265   3.4416   3.6226   3.7791   3.9932   4.4280   4.6961   4.8825
     5.2418   5.5871   5.9056   6.5872   6.6363   6.9315   7.0327   7.2568
     7.3439   7.4909

     occupation numbers 
     1.0000   1.0000   1.0000   1.0000   1.0000   1.0000   1.0000   1.0000
     1.0000   1.0000   1.0000   1.0000   1.0000   1.0000   1.0000   1.0000
     1.0000   1.0000   1.0000   1.0000   1.0000   1.0000   1.0000   1.0000
     1.0000   1.0000   1.0000   1.0000   1.0000   1.0000   1.0000   1.0000
     1.0000   1.0000

          k =-0.1831 0.3171 0.0000 (  5446 PWs)   bands (ev):

   -46.3142 -46.3021 -34.1865 -34.1842 -22.7397 -22.7020 -22.6215 -22.6181
   -22.5871 -22.4682  -9.1276  -8.5786  -8.4668  -7.9788  -7.8022  -7.5554
     2.9209   3.1077   3.4871   3.5425   4.0588   4.4398   4.5749   4.8040
     5.5142   6.1751   6.3380   6.4287   6.8474   6.9875   7.0201   7.2159
     7.2877   7.5596

     occupation numbers 
     1.0000   1.0000   1.0000   1.0000   1.0000   1.0000   1.0000   1.0000
     1.0000   1.0000   1.0000   1.0000   1.0000   1.0000   1.0000   1.0000
     1.0000   1.0000   1.0000   1.0000   1.0000   1.0000   1.0000   1.0000
     1.0000   1.0000   1.0000   1.0000   1.0000   1.0000   1.0000   1.0000
     1.0000   1.0000

          k =-0.3661-0.2114 0.2612 (  5464 PWs)   bands (ev):

   -46.3127 -46.3036 -34.1863 -34.1845 -22.7531 -22.7155 -22.7012 -22.5600
   -22.5457 -22.4612  -9.1039  -8.6544  -8.4533  -8.0446  -7.6589  -7.5597
     2.9162   3.0579   3.2866   3.4875   4.0073   4.3716   5.0578   5.2400
     5.7725   6.0103   6.2242   6.4419   6.5492   6.6898   6.8338   7.1561
     7.2074   7.4647

     occupation numbers 
     1.0000   1.0000   1.0000   1.0000   1.0000   1.0000   1.0000   1.0000
     1.0000   1.0000   1.0000   1.0000   1.0000   1.0000   1.0000   1.0000
     1.0000   1.0000   1.0000   1.0000   1.0000   1.0000   1.0000   1.0000
     1.0000   1.0000   1.0000   1.0000   1.0000   1.0000   1.0000   1.0000
     1.0000   1.0000

          k =-0.3661 0.8455-0.0653 (  5452 PWs)   bands (ev):

   -46.3107 -46.3055 -34.1860 -34.1849 -22.7447 -22.7361 -22.7022 -22.5722
   -22.5077 -22.4767  -8.9603  -8.6788  -8.5674  -7.8183  -7.7614  -7.6862
     2.8453   3.0375   3.2813   3.5798   4.2518   4.6104   4.8458   5.2911
     5.5773   5.9626   6.2025   6.3483   6.4822   6.7251   6.8547   6.9701
     7.2416   7.4870

     occupation numbers 
     1.0000   1.0000   1.0000   1.0000   1.0000   1.0000   1.0000   1.0000
     1.0000   1.0000   1.0000   1.0000   1.0000   1.0000   1.0000   1.0000
     1.0000   1.0000   1.0000   1.0000   1.0000   1.0000   1.0000   1.0000
     1.0000   1.0000   1.0000   1.0000   1.0000   1.0000   1.0000   1.0000
     1.0000   1.0000

          k =-0.3661 0.6341 0.0000 (  5458 PWs)   bands (ev):

   -46.3081 -46.3081 -34.1854 -34.1854 -22.7463 -22.7136 -22.6662 -22.6089
   -22.5165 -22.4920  -8.8115  -8.6824  -8.3853  -8.0237  -7.9242  -7.6859
     2.8979   3.0865   3.5771   3.8688   4.2201   4.3402   4.8021   5.1108
     5.4091   5.7030   6.0339   6.3307   6.7238   6.8168   6.8337   7.1777
     7.2306   7.4797

     occupation numbers 
     1.0000   1.0000   1.0000   1.0000   1.0000   1.0000   1.0000   1.0000
     1.0000   1.0000   1.0000   1.0000   1.0000   1.0000   1.0000   1.0000
     1.0000   1.0000   1.0000   1.0000   1.0000   1.0000   1.0000   1.0000
     1.0000   1.0000   1.0000   1.0000   1.0000   1.0000   1.0000   1.0000
     1.0000   1.0000

          k = 0.5492 0.3171-0.3918 (  5450 PWs)   bands (ev):

   -46.3111 -46.3051 -34.1861 -34.1848 -22.7569 -22.7504 -22.7161 -22.5575
   -22.4939 -22.4625  -9.0386  -8.7316  -8.6208  -7.7553  -7.6813  -7.5995
     2.8989   2.9081   3.0493   3.2217   4.5567   4.8034   5.1668   5.5356
     5.5910   5.7229   6.2055   6.2108   6.5858   6.6146   6.8354   6.9831
     7.1780   7.4298

     occupation numbers 
     1.0000   1.0000   1.0000   1.0000   1.0000   1.0000   1.0000   1.0000
     1.0000   1.0000   1.0000   1.0000   1.0000   1.0000   1.0000   1.0000
     1.0000   1.0000   1.0000   1.0000   1.0000   1.0000   1.0000   1.0000
     1.0000   1.0000   1.0000   1.0000   1.0000   1.0000   1.0000   1.0000
     1.0000   1.0000

          k =-0.0000-0.0000 0.1959 (  5437 PWs)   bands (ev):

   -46.3160 -46.3004 -34.1868 -34.1838 -22.7317 -22.7317 -22.6527 -22.5789
   -22.5789 -22.4534  -9.3005  -8.6321  -8.6321  -7.8552  -7.5325  -7.5325
     3.0406   3.0406   3.2547   3.4828   3.4828   4.3368   5.2035   5.2848
     5.2848   6.3132   6.3132   6.4528   6.5436   7.0239   7.0239   7.1060
     7.6359   7.6359

     occupation numbers 
     1.0000   1.0000   1.0000   1.0000   1.0000   1.0000   1.0000   1.0000
     1.0000   1.0000   1.0000   1.0000   1.0000   1.0000   1.0000   1.0000
     1.0000   1.0000   1.0000   1.0000   1.0000   1.0000   1.0000   1.0000
     1.0000   1.0000   1.0000   1.0000   1.0000   1.0000   1.0000   1.0000
     1.0000   1.0000

          k =-0.0000-0.2114 0.2612 (  5448 PWs)   bands (ev):

   -46.3142 -46.3021 -34.1865 -34.1842 -22.7399 -22.6977 -22.6235 -22.6151
   -22.5879 -22.4692  -9.1526  -8.5684  -8.4547  -8.0448  -7.7601  -7.5541
     2.9544   3.1900   3.4926   3.7384   3.9462   4.4868   4.6817   4.8907
     5.2789   5.8015   6.2192   6.4672   6.5934   6.9755   7.1262   7.2077
     7.4793   7.5249

     occupation numbers 
     1.0000   1.0000   1.0000   1.0000   1.0000   1.0000   1.0000   1.0000
     1.0000   1.0000   1.0000   1.0000   1.0000   1.0000   1.0000   1.0000
     1.0000   1.0000   1.0000   1.0000   1.0000   1.0000   1.0000   1.0000
     1.0000   1.0000   1.0000   1.0000   1.0000   1.0000   1.0000   1.0000
     1.0000   1.0000

          k =-0.0000 0.8455-0.0653 (  5435 PWs)   bands (ev):

   -46.3107 -46.3055 -34.1859 -34.1849 -22.7313 -22.6626 -22.6529 -22.6272
   -22.5710 -22.4971  -8.8796  -8.3954  -8.3564  -8.1662  -8.0589  -7.7160
     2.9808   3.4005   3.8715   4.0161   4.1294   4.3981   4.4170   4.9539
     5.1089   5.2434   6.0243   6.4431   6.7886   6.8035   7.1234   7.2174
     7.3778   7.4016

     occupation numbers 
     1.0000   1.0000   1.0000   1.0000   1.0000   1.0000   1.0000   1.0000
     1.0000   1.0000   1.0000   1.0000   1.0000   1.0000   1.0000   1.0000
     1.0000   1.0000   1.0000   1.0000   1.0000   1.0000   1.0000   1.0000
     1.0000   1.0000   1.0000   1.0000   1.0000   1.0000   1.0000   1.0000
     1.0000   1.0000

          k =-0.0000 0.6341 0.0000 (  5459 PWs)   bands (ev):

   -46.3096 -46.3066 -34.1857 -34.1851 -22.7077 -22.7001 -22.6734 -22.6081
   -22.5402 -22.5151  -8.7575  -8.5535  -8.3914  -7.9953  -7.9951  -7.8683
     3.2649   3.3419   3.4804   3.6828   4.1395   4.3928   4.7523   4.9674
     5.2995   5.5640   5.9518   6.2073   6.7315   6.9461   7.0405   7.1832
     7.2771   7.5085

     occupation numbers 
     1.0000   1.0000   1.0000   1.0000   1.0000   1.0000   1.0000   1.0000
     1.0000   1.0000   1.0000   1.0000   1.0000   1.0000   1.0000   1.0000
     1.0000   1.0000   1.0000   1.0000   1.0000   1.0000   1.0000   1.0000
     1.0000   1.0000   1.0000   1.0000   1.0000   1.0000   1.0000   1.0000
     1.0000   1.0000

          k =-0.0000 0.4228 0.0653 (  5443 PWs)   bands (ev):

   -46.3134 -46.3029 -34.1864 -34.1843 -22.7379 -22.7076 -22.6536 -22.5925
   -22.5752 -22.4717  -9.0801  -8.6135  -8.2932  -8.1880  -7.7257  -7.6095
     3.0328   3.1518   3.2275   3.8740   3.9315   4.1504   4.7820   5.0958
     5.4112   6.0871   6.4174   6.5337   6.6272   6.6931   7.0339   7.2248
     7.3189   7.5273

     occupation numbers 
     1.0000   1.0000   1.0000   1.0000   1.0000   1.0000   1.0000   1.0000
     1.0000   1.0000   1.0000   1.0000   1.0000   1.0000   1.0000   1.0000
     1.0000   1.0000   1.0000   1.0000   1.0000   1.0000   1.0000   1.0000
     1.0000   1.0000   1.0000   1.0000   1.0000   1.0000   1.0000   1.0000
     1.0000   1.0000

          k =-0.1831-0.1057 0.3265 (  5475 PWs)   bands (ev):

   -46.3134 -46.3030 -34.1863 -34.1843 -22.7372 -22.7043 -22.6510 -22.5940
   -22.5745 -22.4730  -9.1137  -8.5936  -8.2816  -8.2350  -7.7239  -7.5959
     3.0951   3.1631   3.5405   3.8444   3.9010   4.2309   4.7726   5.0903
     5.2631   5.8056   6.0967   6.4093   6.6299   6.8141   6.9437   7.1974
     7.4116   7.5608

     occupation numbers 
     1.0000   1.0000   1.0000   1.0000   1.0000   1.0000   1.0000   1.0000
     1.0000   1.0000   1.0000   1.0000   1.0000   1.0000   1.0000   1.0000
     1.0000   1.0000   1.0000   1.0000   1.0000   1.0000   1.0000   1.0000
     1.0000   1.0000   1.0000   1.0000   1.0000   1.0000   1.0000   1.0000
     1.0000   1.0000

          k =-0.1831 0.9512 0.0000 (  5449 PWs)   bands (ev):

   -46.3112 -46.3051 -34.1860 -34.1848 -22.7441 -22.6990 -22.6783 -22.5920
   -22.5441 -22.4810  -8.9762  -8.5262  -8.4807  -8.0129  -7.9133  -7.6277
     2.9495   3.2543   3.5646   3.9381   4.0466   4.3658   4.5983   5.1143
     5.3902   5.7204   6.1388   6.3136   6.5215   6.7582   6.9482   7.1587
     7.2841   7.4403

     occupation numbers 
     1.0000   1.0000   1.0000   1.0000   1.0000   1.0000   1.0000   1.0000
     1.0000   1.0000   1.0000   1.0000   1.0000   1.0000   1.0000   1.0000
     1.0000   1.0000   1.0000   1.0000   1.0000   1.0000   1.0000   1.0000
     1.0000   1.0000   1.0000   1.0000   1.0000   1.0000   1.0000   1.0000
     1.0000   1.0000

          k =-0.1831 0.7398 0.0653 (  5443 PWs)   bands (ev):

   -46.3081 -46.3081 -34.1854 -34.1854 -22.7346 -22.7330 -22.6357 -22.6334
   -22.5032 -22.5026  -8.7750  -8.7584  -8.2787  -8.1801  -7.7766  -7.7523
     2.9797   3.0916   3.5057   3.7801   4.2832   4.6601   4.7006   4.9974
     5.2709   5.7571   6.2091   6.3408   6.4507   6.7057   6.9450   7.1318
     7.2883   7.4164

     occupation numbers 
     1.0000   1.0000   1.0000   1.0000   1.0000   1.0000   1.0000   1.0000
     1.0000   1.0000   1.0000   1.0000   1.0000   1.0000   1.0000   1.0000
     1.0000   1.0000   1.0000   1.0000   1.0000   1.0000   1.0000   1.0000
     1.0000   1.0000   1.0000   1.0000   1.0000   1.0000   1.0000   1.0000
     1.0000   1.0000

          k =-0.1831 0.5284 0.1306 (  5444 PWs)   bands (ev):

   -46.3111 -46.3051 -34.1860 -34.1848 -22.7441 -22.7009 -22.6811 -22.5923
   -22.5430 -22.4803  -8.9555  -8.5197  -8.4707  -8.0154  -7.9245  -7.6260
     2.9031   3.2670   3.4090   3.7013   4.0463   4.4629   4.6505   5.2239
     5.4541   5.9380   6.0554   6.3794   6.6768   6.8397   6.9531   7.0303
     7.2890   7.5040

     occupation numbers 
     1.0000   1.0000   1.0000   1.0000   1.0000   1.0000   1.0000   1.0000
     1.0000   1.0000   1.0000   1.0000   1.0000   1.0000   1.0000   1.0000
     1.0000   1.0000   1.0000   1.0000   1.0000   1.0000   1.0000   1.0000
     1.0000   1.0000   1.0000   1.0000   1.0000   1.0000   1.0000   1.0000
     1.0000   1.0000

          k = 0.7322 0.4228-0.3265 (  5457 PWs)   bands (ev):

   -46.3107 -46.3055 -34.1860 -34.1849 -22.7433 -22.7356 -22.7023 -22.5707
   -22.5080 -22.4777  -8.9781  -8.6894  -8.5545  -7.8186  -7.7812  -7.6674
     3.0557   3.1160   3.1167   3.5382   4.3342   4.5092   4.9454   5.2145
     5.7458   5.8362   6.1452   6.2136   6.5936   6.5942   6.8514   6.9455
     7.1277   7.4799

     occupation numbers 
     1.0000   1.0000   1.0000   1.0000   1.0000   1.0000   1.0000   1.0000
     1.0000   1.0000   1.0000   1.0000   1.0000   1.0000   1.0000   1.0000
     1.0000   1.0000   1.0000   1.0000   1.0000   1.0000   1.0000   1.0000
     1.0000   1.0000   1.0000   1.0000   1.0000   1.0000   1.0000   1.0000
     1.0000   1.0000

          k = 0.7322 0.2114-0.2612 (  5446 PWs)   bands (ev):

   -46.3096 -46.3066 -34.1858 -34.1851 -22.7492 -22.7466 -22.6787 -22.5904
   -22.4932 -22.4821  -8.9040  -8.7695  -8.4638  -7.9589  -7.7207  -7.6596
     2.8957   2.9201   3.2860   3.8111   4.0763   4.8058   5.0061   5.2053
     5.6499   5.7945   6.0515   6.2137   6.4556   6.6323   6.9436   7.0582
     7.1693   7.4572

     occupation numbers 
     1.0000   1.0000   1.0000   1.0000   1.0000   1.0000   1.0000   1.0000
     1.0000   1.0000   1.0000   1.0000   1.0000   1.0000   1.0000   1.0000
     1.0000   1.0000   1.0000   1.0000   1.0000   1.0000   1.0000   1.0000
     1.0000   1.0000   1.0000   1.0000   1.0000   1.0000   1.0000   1.0000
     1.0000   1.0000

          k = 0.7322-0.0000-0.1959 (  5446 PWs)   bands (ev):

   -46.3081 -46.3081 -34.1854 -34.1854 -22.7340 -22.7340 -22.6353 -22.6353
   -22.5025 -22.5025  -8.7605  -8.7605  -8.2330  -8.2330  -7.7630  -7.7630
     2.9854   2.9854   3.6753   3.6753   4.4093   4.4093   4.8442   4.8442
     5.5223   5.5223   6.3228   6.3228   6.6437   6.6437   7.0333   7.0333
     7.3835   7.3835

     occupation numbers 
     1.0000   1.0000   1.0000   1.0000   1.0000   1.0000   1.0000   1.0000
     1.0000   1.0000   1.0000   1.0000   1.0000   1.0000   1.0000   1.0000
     1.0000   1.0000   1.0000   1.0000   1.0000   1.0000   1.0000   1.0000
     1.0000   1.0000   1.0000   1.0000   1.0000   1.0000   1.0000   1.0000
     1.0000   1.0000

          k = 0.5492 0.3171-0.1959 (  5462 PWs)   bands (ev):

   -46.3107 -46.3055 -34.1860 -34.1849 -22.7437 -22.7365 -22.7034 -22.5711
   -22.5077 -22.4773  -8.9628  -8.6811  -8.5597  -7.8228  -7.7721  -7.6736
     2.9875   3.0988   3.1194   3.3884   4.3357   4.6448   4.9971   5.2509
     5.6369   5.8086   6.2742   6.3914   6.5504   6.5944   6.9081   6.9331
     7.1328   7.4969

     occupation numbers 
     1.0000   1.0000   1.0000   1.0000   1.0000   1.0000   1.0000   1.0000
     1.0000   1.0000   1.0000   1.0000   1.0000   1.0000   1.0000   1.0000
     1.0000   1.0000   1.0000   1.0000   1.0000   1.0000   1.0000   1.0000
     1.0000   1.0000   1.0000   1.0000   1.0000   1.0000   1.0000   1.0000
     1.0000   1.0000

          k =-0.0000-0.0000 0.3918 (  5446 PWs)   bands (ev):

   -46.3127 -46.3037 -34.1862 -34.1845 -22.7002 -22.7002 -22.6125 -22.6120
   -22.6120 -22.4974  -9.0170  -8.4177  -8.4177  -8.1857  -7.7854  -7.7854
     3.3863   3.3863   3.6171   4.0370   4.0370   4.6628   4.6628   4.6763
     4.7059   5.6385   5.6385   5.9941   6.6847   7.0896   7.1391   7.1391
     7.5429   7.5429

     occupation numbers 
     1.0000   1.0000   1.0000   1.0000   1.0000   1.0000   1.0000   1.0000
     1.0000   1.0000   1.0000   1.0000   1.0000   1.0000   1.0000   1.0000
     1.0000   1.0000   1.0000   1.0000   1.0000   1.0000   1.0000   1.0000
     1.0000   1.0000   1.0000   1.0000   1.0000   1.0000   1.0000   1.0000
     1.0000   1.0000

          k =-0.0000 1.0569 0.0653 (  5460 PWs)   bands (ev):

   -46.3108 -46.3056 -34.1858 -34.1849 -22.7286 -22.6618 -22.6521 -22.6242
   -22.5723 -22.4986  -8.9151  -8.4249  -8.3309  -8.1690  -8.0642  -7.7015
     3.2006   3.5431   3.7687   4.0633   4.1349   4.3485   4.6190   4.9423
     5.0543   5.0855   5.6972   6.2400   6.6796   6.7538   7.1408   7.3132
     7.3499   7.4035

     occupation numbers 
     1.0000   1.0000   1.0000   1.0000   1.0000   1.0000   1.0000   1.0000
     1.0000   1.0000   1.0000   1.0000   1.0000   1.0000   1.0000   1.0000
     1.0000   1.0000   1.0000   1.0000   1.0000   1.0000   1.0000   1.0000
     1.0000   1.0000   1.0000   1.0000   1.0000   1.0000   1.0000   1.0000
     1.0000   1.0000

          k =-0.0000 0.8455 0.1306 (  5429 PWs)   bands (ev):

   -46.3081 -46.3081 -34.1854 -34.1854 -22.7463 -22.7100 -22.6680 -22.6049
   -22.5187 -22.4924  -8.8248  -8.7184  -8.3640  -8.0370  -7.9050  -7.6886
     2.9488   3.3300   3.4670   3.9192   4.1949   4.2531   4.9394   5.0880
     5.5019   5.5639   6.1109   6.1402   6.4075   6.7431   7.0072   7.0124
     7.1930   7.4849

     occupation numbers 
     1.0000   1.0000   1.0000   1.0000   1.0000   1.0000   1.0000   1.0000
     1.0000   1.0000   1.0000   1.0000   1.0000   1.0000   1.0000   1.0000
     1.0000   1.0000   1.0000   1.0000   1.0000   1.0000   1.0000   1.0000
     1.0000   1.0000   1.0000   1.0000   1.0000   1.0000   1.0000   1.0000
     1.0000   1.0000

          k = 0.9153 0.5284-0.2612 (  5459 PWs)   bands (ev):

   -46.3097 -46.3067 -34.1857 -34.1851 -22.7065 -22.6964 -22.6690 -22.6069
   -22.5422 -22.5169  -8.8108  -8.5962  -8.3687  -8.0060  -7.9750  -7.8539
     3.4728   3.4892   3.6172   4.0637   4.2227   4.2806   4.4885   4.7741
     5.1615   5.4197   5.7683   5.8811   6.7514   6.8407   7.0417   7.2035
     7.2452   7.4819

     occupation numbers 
     1.0000   1.0000   1.0000   1.0000   1.0000   1.0000   1.0000   1.0000
     1.0000   1.0000   1.0000   1.0000   1.0000   1.0000   1.0000   1.0000
     1.0000   1.0000   1.0000   1.0000   1.0000   1.0000   1.0000   1.0000
     1.0000   1.0000   1.0000   1.0000   1.0000   1.0000   1.0000   1.0000
     1.0000   1.0000

          k = 0.9153 0.3171-0.1959 (  5450 PWs)   bands (ev):

   -46.3081 -46.3081 -34.1854 -34.1854 -22.7326 -22.7326 -22.6334 -22.6334
   -22.5036 -22.5036  -8.7875  -8.7875  -8.2247  -8.2247  -7.7610  -7.7610
     3.1429   3.1429   3.6251   3.6251   4.5329   4.5329   4.7536   4.7536
     5.5026   5.5026   6.1168   6.1168   6.6053   6.6053   6.9790   6.9790
     7.3509   7.3509

     occupation numbers 
     1.0000   1.0000   1.0000   1.0000   1.0000   1.0000   1.0000   1.0000
     1.0000   1.0000   1.0000   1.0000   1.0000   1.0000   1.0000   1.0000
     1.0000   1.0000   1.0000   1.0000   1.0000   1.0000   1.0000   1.0000
     1.0000   1.0000   1.0000   1.0000   1.0000   1.0000   1.0000   1.0000
     1.0000   1.0000

          k = 0.0000 0.0000-0.5877 (  5440 PWs)   bands (ev):

   -46.3082 -46.3082 -34.1853 -34.1853 -22.6566 -22.6566 -22.6566 -22.6566
   -22.5559 -22.5559  -8.6129  -8.6129  -8.1110  -8.1110  -8.1110  -8.1110
     3.9515   3.9515   3.9515   3.9515   4.1141   4.1141   4.8206   4.8206
     4.8206   4.8206   5.3018   5.3018   6.9371   6.9371   7.3444   7.3444
     7.3444   7.3444

     occupation numbers 
     1.0000   1.0000   1.0000   1.0000   1.0000   1.0000   1.0000   1.0000
     1.0000   1.0000   1.0000   1.0000   1.0000   1.0000   1.0000   1.0000
     1.0000   1.0000   1.0000   1.0000   1.0000   1.0000   1.0000   1.0000
     1.0000   1.0000   1.0000   1.0000   1.0000   1.0000   1.0000   1.0000
     1.0000   1.0000

     highest occupied level (ev):     7.6359

!    total energy              =    -936.83098331 Ry
     estimated scf accuracy    <          6.3E-13 Ry

     The total energy is the sum of the following terms:
     one-electron contribution =    -135.68396027 Ry
     hartree contribution      =     103.59274308 Ry
     xc contribution           =    -108.47002953 Ry
     ewald contribution        =    -332.81288262 Ry
     one-center paw contrib.   =    -463.45685398 Ry
      -> PAW hartree energy AE =     296.24961861 Ry
      -> PAW hartree energy PS =    -294.71896010 Ry
      -> PAW xc energy AE      =    -561.08157289 Ry
      -> PAW xc energy PS      =      96.09406041 Ry
      -> total E_H with PAW    =     105.12340158 Ry
      -> total E_XC with PAW   =    -573.45754201 Ry

     convergence has been achieved in  47 iterations

     Forces acting on atoms (cartesian axes, Ry/au):

     atom    1 type  1   force =     0.00000000   -0.00000000    0.00254069
     atom    2 type  1   force =    -0.00000000   -0.00000000    0.00254069
     atom    3 type  2   force =    -0.01518395    0.00708640    0.00211646
     atom    4 type  2   force =     0.00145497   -0.01669289    0.00211646
     atom    5 type  2   force =     0.01372898    0.00960649    0.00211646
     atom    6 type  2   force =    -0.00145497   -0.01669289    0.00211646
     atom    7 type  2   force =     0.01518395    0.00708640    0.00211646
     atom    8 type  2   force =    -0.01372898    0.00960649    0.00211646
     atom    9 type  3   force =    -0.00000000   -0.00000000   -0.00889008
     atom   10 type  3   force =    -0.00000000   -0.00000000   -0.00889008
     The non-local contrib.  to forces
     atom    1 type  1   force =    -0.00000000    0.00000000    0.02024685
     atom    2 type  1   force =    -0.00000000    0.00000000    0.02024685
     atom    3 type  2   force =     0.31834446   -0.13903372   -0.05669253
     atom    4 type  2   force =    -0.03876550    0.34521125   -0.05669253
     atom    5 type  2   force =    -0.27957897   -0.20617753   -0.05669253
     atom    6 type  2   force =     0.03876550    0.34521125   -0.05669253
     atom    7 type  2   force =    -0.31834446   -0.13903372   -0.05669253
     atom    8 type  2   force =     0.27957897   -0.20617753   -0.05669253
     atom    9 type  3   force =     0.00000000    0.00000000   -0.01843336
     atom   10 type  3   force =     0.00000000    0.00000000   -0.01843336
     The ionic contribution  to forces
     atom    1 type  1   force =     0.00000000    0.00000000   -0.94924997
     atom    2 type  1   force =    -0.00000000   -0.00000000   -0.94924997
     atom    3 type  2   force =    -3.82623580    2.64694298    0.51202329
     atom    4 type  2   force =    -0.37920196   -4.63708889    0.51202329
     atom    5 type  2   force =     4.20543776    1.99014591    0.51202329
     atom    6 type  2   force =     0.37920197   -4.63708889    0.51202329
     atom    7 type  2   force =     3.82623580    2.64694298    0.51202329
     atom    8 type  2   force =    -4.20543776    1.99014591    0.51202329
     atom    9 type  3   force =     0.00000000   -0.00000000   -0.58681989
     atom   10 type  3   force =     0.00000000   -0.00000000   -0.58681990
     The local contribution  to forces
     atom    1 type  1   force =    -0.00000000   -0.00000000    0.93154389
     atom    2 type  1   force =    -0.00000000    0.00000000    0.93154389
     atom    3 type  2   force =     3.49370771   -2.50192383   -0.45312223
     atom    4 type  2   force =     0.41987574    4.27660156   -0.45312223
     atom    5 type  2   force =    -3.91358345   -1.77467772   -0.45312223
     atom    6 type  2   force =    -0.41987574    4.27660155   -0.45312224
     atom    7 type  2   force =    -3.49370772   -2.50192383   -0.45312224
     atom    8 type  2   force =     3.91358345   -1.77467772   -0.45312224
     atom    9 type  3   force =     0.00000000    0.00000000    0.60197941
     atom   10 type  3   force =     0.00000000    0.00000000    0.60197941
     The core correction contribution to forces
     atom    1 type  1   force =     0.00000000    0.00000000    0.00000000
     atom    2 type  1   force =     0.00000000    0.00000000    0.00000000
     atom    3 type  2   force =    -0.00100070    0.00110110   -0.00009198
     atom    4 type  2   force =    -0.00045324   -0.00141718   -0.00009198
     atom    5 type  2   force =     0.00145393    0.00031607   -0.00009198
     atom    6 type  2   force =     0.00045324   -0.00141718   -0.00009198
     atom    7 type  2   force =     0.00100069    0.00110110   -0.00009198
     atom    8 type  2   force =    -0.00145393    0.00031607   -0.00009198
     atom    9 type  3   force =     0.00000000    0.00000000   -0.00561623
     atom   10 type  3   force =     0.00000000   -0.00000000   -0.00561623
     The Hubbard contrib.    to forces
     atom    1 type  1   force =     0.00000000    0.00000000    0.00000000
     atom    2 type  1   force =     0.00000000    0.00000000    0.00000000
     atom    3 type  2   force =     0.00000000    0.00000000    0.00000000
     atom    4 type  2   force =     0.00000000    0.00000000    0.00000000
     atom    5 type  2   force =     0.00000000    0.00000000    0.00000000
     atom    6 type  2   force =     0.00000000    0.00000000    0.00000000
     atom    7 type  2   force =     0.00000000    0.00000000    0.00000000
     atom    8 type  2   force =     0.00000000    0.00000000    0.00000000
     atom    9 type  3   force =     0.00000000    0.00000000    0.00000000
     atom   10 type  3   force =     0.00000000    0.00000000    0.00000000
     The SCF correction term to forces
     atom    1 type  1   force =    -0.00000000   -0.00000000    0.00000001
     atom    2 type  1   force =     0.00000000   -0.00000000    0.00000001
     atom    3 type  2   force =     0.00000036   -0.00000013   -0.00000000
     atom    4 type  2   force =    -0.00000007    0.00000038   -0.00000000
     atom    5 type  2   force =    -0.00000030   -0.00000025   -0.00000000
     atom    6 type  2   force =     0.00000007    0.00000038   -0.00000000
     atom    7 type  2   force =    -0.00000036   -0.00000013   -0.00000000
     atom    8 type  2   force =     0.00000030   -0.00000025   -0.00000000
     atom    9 type  3   force =     0.00000000    0.00000000    0.00000008
     atom   10 type  3   force =    -0.00000000    0.00000000    0.00000008

     Total force =     0.043387     Total SCF correction =     0.000001


     Computing stress (Cartesian axis) and pressure

          total   stress  (Ry/bohr**3)                   (kbar)     P=       59.67
   0.00058012  -0.00000000  -0.00000000           85.34       -0.00       -0.00
  -0.00000000   0.00058012   0.00000000           -0.00       85.34        0.00
  -0.00000000   0.00000000   0.00005658           -0.00        0.00        8.32

     kinetic stress (kbar)  27439.99     -0.00     -0.00
                                0.00  27439.99      0.00
                                0.00      0.00  27324.29

     local   stress (kbar) -12622.57     -0.00      0.00
                               -0.00 -12622.57     -0.00
                                0.00     -0.00 -11866.34

     nonloc. stress (kbar)   7128.56      0.00      0.00
                                0.00   7128.56      0.00
                                0.00      0.00   7162.65

     hartree stress (kbar)   7352.27      0.00      0.00
                                0.00   7352.27      0.00
                                0.00      0.00   7251.21

     exc-cor stress (kbar)   1092.06      0.00     -0.00
                                0.00   1092.06      0.00
                               -0.00      0.00   1089.99

     corecor stress (kbar)  -7008.53      0.00      0.00
                                0.00  -7008.53     -0.00
                                0.00     -0.00  -7009.02

     ewald   stress (kbar) -23296.44      0.00     -0.00
                                0.00 -23296.44      0.00
                               -0.00      0.00 -23944.45

     hubbard stress (kbar)      0.00      0.00      0.00
                                0.00      0.00      0.00
                                0.00      0.00      0.00

     DFT-D   stress (kbar)      0.00      0.00      0.00
                                0.00      0.00      0.00
                                0.00      0.00      0.00

     XDM     stress (kbar)      0.00      0.00      0.00
                                0.00      0.00      0.00
                                0.00      0.00      0.00

     dft-nl  stress (kbar)      0.00      0.00      0.00
                                0.00      0.00      0.00
                                0.00      0.00      0.00

     TS-vdW  stress (kbar)      0.00      0.00      0.00
                                0.00      0.00      0.00
                                0.00      0.00      0.00

     MDB     stress (kbar)      0.00      0.00      0.00
                                0.00      0.00      0.00
                                0.00      0.00      0.00

     3D-RISM stress (kbar)      0.00      0.00      0.00
                                0.00      0.00      0.00
                                0.00      0.00      0.00

     Message from routine punch:
     Nothing written, as per user request (disk_io='none')
 
     init_run     :      0.57s CPU      0.79s WALL (       1 calls)
     electrons    :     25.95s CPU     26.47s WALL (       1 calls)
     forces       :      0.07s CPU      0.08s WALL (       1 calls)
     stress       :      0.16s CPU      0.16s WALL (       1 calls)

     Called by init_run:
     wfcinit      :      0.18s CPU      0.29s WALL (       1 calls)
     wfcinit:atom :      0.03s CPU      0.03s WALL (      32 calls)
     wfcinit:wfcr :      0.13s CPU      0.21s WALL (      32 calls)
     potinit      :      0.10s CPU      0.12s WALL (       1 calls)
     hinit0       :      0.22s CPU      0.24s WALL (       1 calls)

     Called by electrons:
     c_bands      :     18.22s CPU     18.58s WALL (      47 calls)
     sum_band     :      3.21s CPU      3.25s WALL (      47 calls)
     v_of_rho     :      0.18s CPU      0.20s WALL (      48 calls)
     v_h          :      0.07s CPU      0.08s WALL (      48 calls)
     v_xc         :      0.11s CPU      0.12s WALL (      50 calls)
     newd         :      0.42s CPU      0.47s WALL (      48 calls)
     PAW_pot      :      3.48s CPU      3.56s WALL (      48 calls)
     mix_rho      :      0.33s CPU      0.34s WALL (      47 calls)

     Called by c_bands:
     init_us_2    :      0.99s CPU      1.01s WALL (    3104 calls)
     cegterg      :     16.09s CPU     16.38s WALL (    1504 calls)

     Called by sum_band:
     sum_band:wei :      0.00s CPU      0.00s WALL (      47 calls)
     sum_band:loo :      2.45s CPU      2.48s WALL (      47 calls)
     sum_band:buf :      0.40s CPU      0.41s WALL (    1504 calls)
     sum_band:ini :      0.48s CPU      0.48s WALL (    1504 calls)
     sum_band:cal :      0.03s CPU      0.03s WALL (    1504 calls)
     sum_band:bec :      0.57s CPU      0.57s WALL (    1504 calls)
     addusdens    :      0.49s CPU      0.50s WALL (      47 calls)
                                        0.50s GPU  (      47 calls)
     addusd:skk   :      0.01s CPU      0.01s WALL (     141 calls)
                                        0.01s GPU  (     141 calls)

     Called by *egterg:
     cdiaghg      :      7.22s CPU      7.39s WALL (    5897 calls)
                                        7.33s GPU  (    5897 calls)
     cegterg:over :      0.41s CPU      0.42s WALL (    4393 calls)
     cegterg:upda :      1.29s CPU      1.30s WALL (    4393 calls)
     cegterg:last :      0.16s CPU      0.16s WALL (    3071 calls)
     h_psi        :      4.67s CPU      4.92s WALL (    5929 calls)
     s_psi        :      1.55s CPU      1.58s WALL (    5929 calls)
     g_psi        :      0.09s CPU      0.09s WALL (    4393 calls)

     Called by h_psi:
     h_psi:calbec :      0.11s CPU      0.14s WALL (    5929 calls)
     vloc_psi     :      3.07s CPU      3.33s WALL (    5929 calls)
                                        3.28s GPU  (    5929 calls)
     add_vuspsi   :      1.31s CPU      1.34s WALL (    5929 calls)

     General routines
     calbec       :      0.13s CPU      0.16s WALL (    7977 calls)
     fft          :      0.06s CPU      0.10s WALL (     647 calls)
                                        0.03s GPU  (     599 calls)
     ffts         :      0.03s CPU      0.03s WALL (      95 calls)
                                        0.00s GPU  (      47 calls)
     fftw         :      0.23s CPU      2.07s WALL (   30134 calls)
                                        1.78s GPU  (   30134 calls)
     interpolate  :      0.12s CPU      0.13s WALL (      48 calls)
 
     Parallel routines

     PAW routines
     PAW_pot      :      3.48s CPU      3.56s WALL (      48 calls)
     PAW_symme    :      0.01s CPU      0.01s WALL (      95 calls)
 
     PWSCF        :     27.09s CPU     27.86s WALL

 
   This run was terminated on:  17: 6: 4  29Nov2025            

=------------------------------------------------------------------------------=
   JOB DONE.
=------------------------------------------------------------------------------=
