
     Program PWSCF v.7.5 starts on 29Nov2025 at 17: 5:36 

     This program is part of the open-source Quantum ESPRESSO suite
     for quantum simulation of materials; please cite
         "P. Giannozzi et al., J. Phys.:Condens. Matter 21 395502 (2009);
         "P. Giannozzi et al., J. Phys.:Condens. Matter 29 465901 (2017);
         "P. Giannozzi et al., J. Chem. Phys. 152 154105 (2020);
          URL http://www.quantum-espresso.org", 
     in publications or presentations arising from this work. More details at
     http://www.quantum-espresso.org/quote

     Parallel version (MPI & OpenMP), running on       1 processor cores
     Number of MPI processes:                 1
     Threads/MPI process:                     1

     MPI processes distributed on     1 nodes
     1521658 MiB available memory on the printing compute node when the environment starts
 
     Reading input from espresso.pwi
Warning: card &CELL ignored
Warning: card &FCP ignored
Warning: card &RISM ignored

     Current dimensions of program PWSCF are:
     Max number of different atomic species (ntypx) = 10
     Max number of k-points (npk) =  40000
     Max angular momentum in pseudopotentials (lmaxx) =  4
     file O.pbesol-n-kjpaw_psl.0.1.UPF: wavefunction(s)  2P renormalized
     file Nb.pbesol-spn-kjpaw_psl.0.3.0.UPF: wavefunction(s)  4S 4P renormalized
     Message from routine setup:
     using ibrav=0 with symmetry is DISCOURAGED, use correct ibrav instead
 
     Subspace diagonalization in iterative solution of the eigenvalue problem:
     a serial algorithm will be used

 
     G-vector sticks info
     --------------------
     sticks:   dense  smooth     PW     G-vecs:    dense   smooth      PW
     Sum        2773    1671    489                92761    43153    6893
 
     Using Slab Decomposition
 


     bravais-lattice index     =            0
     lattice parameter (alat)  =      10.3620  a.u.
     unit-cell volume          =     687.2741 (a.u.)^3
     number of atoms/cell      =           10
     number of atomic types    =            3
     number of electrons       =        68.00
     number of Kohn-Sham states=           34
     kinetic-energy cutoff     =      60.0000  Ry
     charge density cutoff     =     400.0000  Ry
     scf convergence threshold =      1.0E-12
     mixing beta               =       0.7000
     number of iterations used =            8  plain     mixing
     Exchange-correlation= SLA  PW   PSX  PSC
                           (   1   4  10   8   0   0   0)

     GPU acceleration is ACTIVE.  1 visible GPUs per MPI rank


     GPU used by master process:

        Device Number: 0
        Device name: NVIDIA B200
        Compute capability : 100
        Ratio of single to double precision performance  : 16
        Memory Clock Rate (KHz): 3996000
        Memory Bus Width (bits): 7680
        Peak Memory Bandwidth (GB/s): ******

     celldm(1)=  10.361958  celldm(2)=   0.000000  celldm(3)=   0.000000
     celldm(4)=   0.000000  celldm(5)=   0.000000  celldm(6)=   0.000000

     crystal axes: (cart. coord. in units of alat)
               a(1) = (   0.458473   0.264699   0.848373 )  
               a(2) = (  -0.458473   0.264699   0.848373 )  
               a(3) = (   0.000000  -0.529399   0.848373 )  

     reciprocal axes: (cart. coord. in units 2 pi/alat)
               b(1) = (  1.090578  0.629645  0.392909 )  
               b(2) = ( -1.090578  0.629645  0.392909 )  
               b(3) = (  0.000000 -1.259291  0.392909 )  


     PseudoPot. # 1 for Li read from file:
     /home/qhossain/SSSP_1.3.0_PBEsol_efficiency/li_pbesol_v1.4.uspp.F.UPF
     MD5 check sum: aa28d9aeea6a965f2dc95ee9517b3536
     Pseudo is Ultrasoft, Zval =  3.0
     Generated by new atomic code, or converted to UPF format
     Using radial grid of  751 points,  5 beta functions with: 
                l(1) =   0
                l(2) =   0
                l(3) =   0
                l(4) =   1
                l(5) =   1
     Q(r) pseudized with 10 coefficients,  rinner =    1.150   1.150   1.150


     PseudoPot. # 2 for O  read from file:
     /home/qhossain/SSSP_1.3.0_PBEsol_efficiency/O.pbesol-n-kjpaw_psl.0.1.UPF
     MD5 check sum: 81d73d1479e654e5638b0319f0d6c2c7
     Pseudo is Projector augmented-wave + core cor, Zval =  6.0
     Generated using "atomic" code by A. Dal Corso  v.6.0 svn rev. 13079
     Shape of augmentation charge: BESSEL
     Using radial grid of 1095 points,  4 beta functions with: 
                l(1) =   0
                l(2) =   0
                l(3) =   1
                l(4) =   1
     Q(r) pseudized with 0 coefficients 


     PseudoPot. # 3 for Nb read from file:
     /home/qhossain/SSSP_1.3.0_PBEsol_efficiency/Nb.pbesol-spn-kjpaw_psl.0.3.0.UPF
     MD5 check sum: 3501bca1474143575298708b2d32ca28
     Pseudo is Projector augmented-wave + core cor, Zval = 13.0
     Generated using "atomic" code by A. Dal Corso  v.6.0 svn rev. 13079
     Shape of augmentation charge: PSQ
     Using radial grid of 1227 points,  6 beta functions with: 
                l(1) =   0
                l(2) =   0
                l(3) =   1
                l(4) =   1
                l(5) =   2
                l(6) =   2
     Q(r) pseudized with 0 coefficients 


     atomic species   valence    mass     pseudopotential
     Li                3.00     6.94000     Li( 1.00)
     O                 6.00    15.99900     O ( 1.00)
     Nb               13.00    92.90637     Nb( 1.00)

      6 Sym. Ops. (no inversion) found ( 3 have fractional translation)


                                    s                        frac. trans.

      isym =  1     identity                                     

 cryst.   s( 1) = (     1          0          0      )
                  (     0          1          0      )
                  (     0          0          1      )

 cart.    s( 1) = (  1.0000000  0.0000000  0.0000000 )
                  ( -0.0000000  1.0000000  0.0000000 )
                  ( -0.0000000 -0.0000000  1.0000000 )


      isym =  2     120 deg rotation - cryst. axis [0,0,1]       

 cryst.   s( 2) = (     0          1          0      )
                  (     0          0          1      )
                  (     1          0          0      )

 cart.    s( 2) = ( -0.5000000 -0.8660254 -0.0000000 )
                  (  0.8660254 -0.5000000 -0.0000000 )
                  ( -0.0000000  0.0000000  1.0000000 )


      isym =  3     120 deg rotation - cryst. axis [0,0,-1]      

 cryst.   s( 3) = (     0          0          1      )
                  (     1          0          0      )
                  (     0          1          0      )

 cart.    s( 3) = ( -0.5000000  0.8660254  0.0000000 )
                  ( -0.8660254 -0.5000000 -0.0000000 )
                  (  0.0000000  0.0000000  1.0000000 )


      isym =  4     inv. 180 deg rotation - cart. axis [1,0,0]   

 cryst.   s( 4) = (     0          1          0      )    f =(  0.5000000 )
                  (     1          0          0      )       (  0.5000000 )
                  (     0          0          1      )       (  0.5000000 )

 cart.    s( 4) = ( -1.0000000  0.0000000  0.0000000 )    f =(  0.0000000 )
                  (  0.0000000  1.0000000  0.0000000 )       ( -0.0000000 )
                  (  0.0000000 -0.0000000  1.0000000 )       (  1.2725598 )


      isym =  5     inv. 180 deg rotation - cryst. axis [0,1,0]  

 cryst.   s( 5) = (     1          0          0      )    f =(  0.5000000 )
                  (     0          0          1      )       (  0.5000000 )
                  (     0          1          0      )       (  0.5000000 )

 cart.    s( 5) = (  0.5000000  0.8660254  0.0000000 )    f =(  0.0000000 )
                  (  0.8660254 -0.5000000 -0.0000000 )       ( -0.0000000 )
                  ( -0.0000000  0.0000000  1.0000000 )       (  1.2725598 )


      isym =  6     inv. 180 deg rotation - cryst. axis [1,1,0]  

 cryst.   s( 6) = (     0          0          1      )    f =(  0.5000000 )
                  (     0          1          0      )       (  0.5000000 )
                  (     1          0          0      )       (  0.5000000 )

 cart.    s( 6) = (  0.5000000 -0.8660254 -0.0000000 )    f =( -0.0000000 )
                  ( -0.8660254 -0.5000000 -0.0000000 )       ( -0.0000000 )
                  (  0.0000000  0.0000000  1.0000000 )       (  1.2725598 )


   Cartesian axes

     site n.     atom                  positions (alat units)
         1        Li     tau(   1) = (  -0.0000000  -0.0000000   1.9939204  )
         2        Li     tau(   2) = (   0.0000000  -0.0000000   0.7213606  )
         3        O      tau(   3) = (  -0.2938723  -0.0374801   1.4408024  )
         4        O      tau(   4) = (   0.1793948  -0.2357608   1.4408024  )
         5        O      tau(   5) = (   0.1144774   0.2732409   1.4408024  )
         6        O      tau(   6) = (   0.2790778   0.0289385   1.0166158  )
         7        O      tau(   7) = (  -0.1646004   0.2272192   1.0166158  )
         8        O      tau(   8) = (  -0.1144774  -0.2561577   1.0166158  )
         9        Nb     tau(   9) = (  -0.0000000  -0.0000000   1.2752987  )
        10        Nb     tau(  10) = (  -0.0000000  -0.0000000   0.0027389  )

   Crystallographic axes

     site n.     atom                  positions (cryst. coord.)
         1        Li     tau(   1) = (  0.7834289  0.7834289  0.7834289  )
         2        Li     tau(   2) = (  0.2834289  0.2834289  0.2834289  )
         3        O      tau(   3) = (  0.2220144  0.8629954  0.6133023  )
         4        O      tau(   4) = (  0.6133023  0.2220144  0.8629954  )
         5        O      tau(   5) = (  0.8629954  0.6133023  0.2220144  )
         6        O      tau(   6) = (  0.7220144  0.1133023  0.3629954  )
         7        O      tau(   7) = (  0.3629954  0.7220144  0.1133023  )
         8        O      tau(   8) = (  0.1133023  0.3629954  0.7220144  )
         9        Nb     tau(   9) = (  0.5010761  0.5010761  0.5010761  )
        10        Nb     tau(  10) = (  0.0010761  0.0010761  0.0010761  )

     number of k points=    32
                       cart. coord. in units 2pi/alat
        k(    1) = (   0.0000000   0.0000000   0.0000000), wk =   0.0092593
        k(    2) = (   0.0000000  -0.2098818   0.0654848), wk =   0.0555556
        k(    3) = (   0.0000000  -0.4197635   0.1309696), wk =   0.0555556
        k(    4) = (  -0.0000000   0.6296453  -0.1964544), wk =   0.0277778
        k(    5) = (  -0.1817629  -0.1049409   0.1309696), wk =   0.0555556
        k(    6) = (  -0.1817629  -0.3148226   0.1964544), wk =   0.1111111
        k(    7) = (  -0.1817629   0.7345861  -0.1309696), wk =   0.1111111
        k(    8) = (  -0.1817629   0.5247044  -0.0654848), wk =   0.1111111
        k(    9) = (  -0.1817629   0.3148226   0.0000000), wk =   0.0555556
        k(   10) = (  -0.3635259  -0.2098818   0.2619392), wk =   0.0555556
        k(   11) = (  -0.3635259   0.8395270  -0.0654848), wk =   0.1111111
        k(   12) = (  -0.3635259   0.6296453   0.0000000), wk =   0.0555556
        k(   13) = (   0.5452888   0.3148226  -0.3929088), wk =   0.0277778
        k(   14) = (  -0.0000000  -0.0000000   0.1964544), wk =   0.0185185
        k(   15) = (  -0.0000000  -0.2098818   0.2619392), wk =   0.0555556
        k(   16) = (  -0.0000000   0.8395270  -0.0654848), wk =   0.0555556
        k(   17) = (  -0.0000000   0.6296453   0.0000000), wk =   0.0555556
        k(   18) = (  -0.0000000   0.4197635   0.0654848), wk =   0.0555556
        k(   19) = (  -0.1817629  -0.1049409   0.3274240), wk =   0.0555556
        k(   20) = (  -0.1817629   0.9444679   0.0000000), wk =   0.1111111
        k(   21) = (  -0.1817629   0.7345861   0.0654848), wk =   0.1111111
        k(   22) = (  -0.1817629   0.5247044   0.1309696), wk =   0.1111111
        k(   23) = (   0.7270517   0.4197635  -0.3274240), wk =   0.0555556
        k(   24) = (   0.7270517   0.2098818  -0.2619392), wk =   0.1111111
        k(   25) = (   0.7270517  -0.0000000  -0.1964544), wk =   0.0555556
        k(   26) = (   0.5452888   0.3148226  -0.1964544), wk =   0.0555556
        k(   27) = (  -0.0000000  -0.0000000   0.3929088), wk =   0.0185185
        k(   28) = (  -0.0000000   1.0494088   0.0654848), wk =   0.0555556
        k(   29) = (  -0.0000000   0.8395270   0.1309696), wk =   0.0555556
        k(   30) = (   0.9088146   0.5247044  -0.2619392), wk =   0.0555556
        k(   31) = (   0.9088146   0.3148226  -0.1964544), wk =   0.0555556
        k(   32) = (  -0.0000000   0.0000000  -0.5893633), wk =   0.0092593

                       cryst. coord.
        k(    1) = (   0.0000000   0.0000000   0.0000000), wk =   0.0092593
        k(    2) = (  -0.0000000  -0.0000000   0.1666667), wk =   0.0555556
        k(    3) = (  -0.0000000  -0.0000000   0.3333333), wk =   0.0555556
        k(    4) = (  -0.0000000   0.0000000  -0.5000000), wk =   0.0277778
        k(    5) = (  -0.0000000   0.1666667   0.1666667), wk =   0.0555556
        k(    6) = (  -0.0000000   0.1666667   0.3333333), wk =   0.1111111
        k(    7) = (   0.0000000   0.1666667  -0.5000000), wk =   0.1111111
        k(    8) = (   0.0000000   0.1666667  -0.3333333), wk =   0.1111111
        k(    9) = (   0.0000000   0.1666667  -0.1666667), wk =   0.0555556
        k(   10) = (  -0.0000000   0.3333333   0.3333333), wk =   0.0555556
        k(   11) = (  -0.0000000   0.3333333  -0.5000000), wk =   0.1111111
        k(   12) = (  -0.0000000   0.3333333  -0.3333333), wk =   0.0555556
        k(   13) = (   0.0000000  -0.5000000  -0.5000000), wk =   0.0277778
        k(   14) = (   0.1666667   0.1666667   0.1666667), wk =   0.0185185
        k(   15) = (   0.1666667   0.1666667   0.3333333), wk =   0.0555556
        k(   16) = (   0.1666667   0.1666667  -0.5000000), wk =   0.0555556
        k(   17) = (   0.1666667   0.1666667  -0.3333333), wk =   0.0555556
        k(   18) = (   0.1666667   0.1666667  -0.1666667), wk =   0.0555556
        k(   19) = (   0.1666667   0.3333333   0.3333333), wk =   0.0555556
        k(   20) = (   0.1666667   0.3333333  -0.5000000), wk =   0.1111111
        k(   21) = (   0.1666667   0.3333333  -0.3333333), wk =   0.1111111
        k(   22) = (   0.1666667   0.3333333  -0.1666667), wk =   0.1111111
        k(   23) = (   0.1666667  -0.5000000  -0.5000000), wk =   0.0555556
        k(   24) = (   0.1666667  -0.5000000  -0.3333333), wk =   0.1111111
        k(   25) = (   0.1666667  -0.5000000  -0.1666667), wk =   0.0555556
        k(   26) = (   0.1666667  -0.3333333  -0.3333333), wk =   0.0555556
        k(   27) = (   0.3333333   0.3333333   0.3333333), wk =   0.0185185
        k(   28) = (   0.3333333   0.3333333  -0.5000000), wk =   0.0555556
        k(   29) = (   0.3333333   0.3333333  -0.3333333), wk =   0.0555556
        k(   30) = (   0.3333333  -0.5000000  -0.5000000), wk =   0.0555556
        k(   31) = (   0.3333333  -0.5000000  -0.3333333), wk =   0.0555556
        k(   32) = (  -0.5000000  -0.5000000  -0.5000000), wk =   0.0092593

     Dense  grid:    92761 G-vectors     FFT dimensions: (  72,  72,  72)

     Smooth grid:    43153 G-vectors     FFT dimensions: (  54,  54,  54)

     Dynamical RAM for                 wfc:       2.80 MB

     Dynamical RAM for     wfc (w. buffer):      92.35 MB

     Dynamical RAM for           str. fact:       4.25 MB

     Dynamical RAM for           local pot:       0.00 MB

     Dynamical RAM for          nlocal pot:       8.40 MB

     Dynamical RAM for                qrad:       4.82 MB

     Dynamical RAM for          rho,v,vnew:      12.79 MB

     Dynamical RAM for               rhoin:       4.26 MB

     Dynamical RAM for            rho*nmix:      22.65 MB

     Dynamical RAM for           G-vectors:       5.64 MB

     Dynamical RAM for          h,s,v(r/c):       0.21 MB

     Dynamical RAM for          <psi|beta>:       0.05 MB

     Dynamical RAM for                 psi:       5.60 MB

     Dynamical RAM for                hpsi:       5.60 MB

     Dynamical RAM for                spsi:       5.60 MB

     Dynamical RAM for      wfcinit/wfcrot:       5.62 MB

     Dynamical RAM for           addusdens:     271.76 MB

     Dynamical RAM for          addusforce:     286.65 MB

     Dynamical RAM for         addusstress:     284.50 MB

     Estimated static dynamical RAM per process >     152.39 MB

     Estimated max dynamical RAM per process >     461.69 MB

     Check: negative core charge=   -0.000005

     Initial potential from superposition of free atoms

     starting charge      67.0945, renormalised to      68.0000
     Starting wfcs are   54 randomized atomic wfcs
     Checking if some PAW data can be deallocated... 

     total cpu time spent up to now is        1.1 secs

     per-process dynamical memory:   551.6 Mb

     Self-consistent Calculation
[tb_dev] Currently allocated     1.86E+00 Mbytes, locked:    0 /   3
[tb_pin] Currently allocated     0.00E+00 Mbytes, locked:    0 /   0

     iteration #  1     ecut=    60.00 Ry     beta= 0.70
     Davidson diagonalization with overlap

---- Real-time Memory Report at c_bands before calling an iterative solver
           978 MiB given to the printing process from OS
           538 MiB allocation reported by mallinfo(arena+hblkhd)
       1521846 MiB available memory on the node where the printing process lives
     GPU memory used/free/total (MiB): 2255 / 180386 / 182642
------------------
     ethr =  1.00E-02,  avg # of iterations =  1.4

     total cpu time spent up to now is        1.6 secs

     total energy              =    -934.55419858 Ry
     estimated scf accuracy    <       4.25804706 Ry
[tb_dev] Currently allocated     0.00E+00 Mbytes, locked:    0 /   0
[tb_pin] Currently allocated     0.00E+00 Mbytes, locked:    0 /   0

     iteration #  2     ecut=    60.00 Ry     beta= 0.70
     Davidson diagonalization with overlap

---- Real-time Memory Report at c_bands before calling an iterative solver
          1026 MiB given to the printing process from OS
           612 MiB allocation reported by mallinfo(arena+hblkhd)
       1521713 MiB available memory on the node where the printing process lives
     GPU memory used/free/total (MiB): 2255 / 180386 / 182642
------------------
     ethr =  6.26E-03,  avg # of iterations =  8.1

     total cpu time spent up to now is        2.7 secs

     total energy              =    -934.40007464 Ry
     estimated scf accuracy    <      12.67604734 Ry
[tb_dev] Currently allocated     0.00E+00 Mbytes, locked:    0 /   0
[tb_pin] Currently allocated     0.00E+00 Mbytes, locked:    0 /   0

     iteration #  3     ecut=    60.00 Ry     beta= 0.70
     Davidson diagonalization with overlap

---- Real-time Memory Report at c_bands before calling an iterative solver
          1033 MiB given to the printing process from OS
           616 MiB allocation reported by mallinfo(arena+hblkhd)
       1521672 MiB available memory on the node where the printing process lives
     GPU memory used/free/total (MiB): 2257 / 180384 / 182642
------------------
     ethr =  6.26E-03,  avg # of iterations =  5.1

     total cpu time spent up to now is        3.4 secs

     total energy              =    -936.65902257 Ry
     estimated scf accuracy    <       0.06657405 Ry
[tb_dev] Currently allocated     0.00E+00 Mbytes, locked:    0 /   0
[tb_pin] Currently allocated     0.00E+00 Mbytes, locked:    0 /   0

     iteration #  4     ecut=    60.00 Ry     beta= 0.70
     Davidson diagonalization with overlap

---- Real-time Memory Report at c_bands before calling an iterative solver
          1035 MiB given to the printing process from OS
           618 MiB allocation reported by mallinfo(arena+hblkhd)
       1521660 MiB available memory on the node where the printing process lives
     GPU memory used/free/total (MiB): 2257 / 180384 / 182642
------------------
     ethr =  9.79E-05,  avg # of iterations =  8.9

     total cpu time spent up to now is        4.5 secs

     total energy              =    -936.71943695 Ry
     estimated scf accuracy    <       0.29247687 Ry
[tb_dev] Currently allocated     0.00E+00 Mbytes, locked:    0 /   0
[tb_pin] Currently allocated     0.00E+00 Mbytes, locked:    0 /   0

     iteration #  5     ecut=    60.00 Ry     beta= 0.70
     Davidson diagonalization with overlap

---- Real-time Memory Report at c_bands before calling an iterative solver
          1037 MiB given to the printing process from OS
           610 MiB allocation reported by mallinfo(arena+hblkhd)
       1522333 MiB available memory on the node where the printing process lives
     GPU memory used/free/total (MiB): 2257 / 180384 / 182642
------------------
     ethr =  9.79E-05,  avg # of iterations =  7.1

     total cpu time spent up to now is        5.4 secs

     total energy              =    -936.82149545 Ry
     estimated scf accuracy    <       0.12860808 Ry
[tb_dev] Currently allocated     0.00E+00 Mbytes, locked:    0 /   0
[tb_pin] Currently allocated     0.00E+00 Mbytes, locked:    0 /   0

     iteration #  6     ecut=    60.00 Ry     beta= 0.70
     Davidson diagonalization with overlap

---- Real-time Memory Report at c_bands before calling an iterative solver
          1039 MiB given to the printing process from OS
           622 MiB allocation reported by mallinfo(arena+hblkhd)
       1519259 MiB available memory on the node where the printing process lives
     GPU memory used/free/total (MiB): 2257 / 180384 / 182642
------------------
     ethr =  9.79E-05,  avg # of iterations =  2.3

     total cpu time spent up to now is        5.9 secs

     total energy              =    -936.81187369 Ry
     estimated scf accuracy    <       0.03438920 Ry
[tb_dev] Currently allocated     0.00E+00 Mbytes, locked:    0 /   0
[tb_pin] Currently allocated     0.00E+00 Mbytes, locked:    0 /   0

     iteration #  7     ecut=    60.00 Ry     beta= 0.70
     Davidson diagonalization with overlap

---- Real-time Memory Report at c_bands before calling an iterative solver
          1041 MiB given to the printing process from OS
           622 MiB allocation reported by mallinfo(arena+hblkhd)
       1516656 MiB available memory on the node where the printing process lives
     GPU memory used/free/total (MiB): 2257 / 180384 / 182642
------------------
     ethr =  5.06E-05,  avg # of iterations =  5.7

     total cpu time spent up to now is        6.7 secs

     total energy              =    -936.82998132 Ry
     estimated scf accuracy    <       0.01380545 Ry
[tb_dev] Currently allocated     0.00E+00 Mbytes, locked:    0 /   0
[tb_pin] Currently allocated     0.00E+00 Mbytes, locked:    0 /   0

     iteration #  8     ecut=    60.00 Ry     beta= 0.70
     Davidson diagonalization with overlap

---- Real-time Memory Report at c_bands before calling an iterative solver
          1043 MiB given to the printing process from OS
           624 MiB allocation reported by mallinfo(arena+hblkhd)
       1511952 MiB available memory on the node where the printing process lives
     GPU memory used/free/total (MiB): 2257 / 180384 / 182642
------------------
     ethr =  2.03E-05,  avg # of iterations =  1.3

     total cpu time spent up to now is        7.1 secs

     total energy              =    -936.82864811 Ry
     estimated scf accuracy    <       0.00643798 Ry
[tb_dev] Currently allocated     0.00E+00 Mbytes, locked:    0 /   0
[tb_pin] Currently allocated     0.00E+00 Mbytes, locked:    0 /   0

     iteration #  9     ecut=    60.00 Ry     beta= 0.70
     Davidson diagonalization with overlap

---- Real-time Memory Report at c_bands before calling an iterative solver
          1045 MiB given to the printing process from OS
           625 MiB allocation reported by mallinfo(arena+hblkhd)
       1509388 MiB available memory on the node where the printing process lives
     GPU memory used/free/total (MiB): 2257 / 180384 / 182642
------------------
     ethr =  9.47E-06,  avg # of iterations =  3.9

     total cpu time spent up to now is        7.7 secs

     total energy              =    -936.82908080 Ry
     estimated scf accuracy    <       0.00116113 Ry
[tb_dev] Currently allocated     0.00E+00 Mbytes, locked:    0 /   0
[tb_pin] Currently allocated     0.00E+00 Mbytes, locked:    0 /   0

     iteration # 10     ecut=    60.00 Ry     beta= 0.70
     Davidson diagonalization with overlap

---- Real-time Memory Report at c_bands before calling an iterative solver
          1046 MiB given to the printing process from OS
           628 MiB allocation reported by mallinfo(arena+hblkhd)
       1508233 MiB available memory on the node where the printing process lives
     GPU memory used/free/total (MiB): 2257 / 180384 / 182642
------------------
     ethr =  1.71E-06,  avg # of iterations =  5.4

     total cpu time spent up to now is        8.4 secs

     total energy              =    -936.82965667 Ry
     estimated scf accuracy    <       0.00003586 Ry
[tb_dev] Currently allocated     0.00E+00 Mbytes, locked:    0 /   0
[tb_pin] Currently allocated     0.00E+00 Mbytes, locked:    0 /   0

     iteration # 11     ecut=    60.00 Ry     beta= 0.70
     Davidson diagonalization with overlap

---- Real-time Memory Report at c_bands before calling an iterative solver
          1047 MiB given to the printing process from OS
           628 MiB allocation reported by mallinfo(arena+hblkhd)
       1508203 MiB available memory on the node where the printing process lives
     GPU memory used/free/total (MiB): 2257 / 180384 / 182642
------------------
     ethr =  5.27E-08,  avg # of iterations =  5.5

     total cpu time spent up to now is        9.2 secs

     total energy              =    -936.82967218 Ry
     estimated scf accuracy    <       0.00000202 Ry
[tb_dev] Currently allocated     0.00E+00 Mbytes, locked:    0 /   0
[tb_pin] Currently allocated     0.00E+00 Mbytes, locked:    0 /   0

     iteration # 12     ecut=    60.00 Ry     beta= 0.70
     Davidson diagonalization with overlap

---- Real-time Memory Report at c_bands before calling an iterative solver
          1047 MiB given to the printing process from OS
           619 MiB allocation reported by mallinfo(arena+hblkhd)
       1520505 MiB available memory on the node where the printing process lives
     GPU memory used/free/total (MiB): 2257 / 180384 / 182642
------------------
     ethr =  2.98E-09,  avg # of iterations =  7.8

     total cpu time spent up to now is       10.2 secs

     total energy              =    -936.82967597 Ry
     estimated scf accuracy    <       0.00002846 Ry
[tb_dev] Currently allocated     0.00E+00 Mbytes, locked:    0 /   0
[tb_pin] Currently allocated     0.00E+00 Mbytes, locked:    0 /   0

     iteration # 13     ecut=    60.00 Ry     beta= 0.70
     Davidson diagonalization with overlap

---- Real-time Memory Report at c_bands before calling an iterative solver
          1047 MiB given to the printing process from OS
           628 MiB allocation reported by mallinfo(arena+hblkhd)
       1520435 MiB available memory on the node where the printing process lives
     GPU memory used/free/total (MiB): 2257 / 180384 / 182642
------------------
     ethr =  2.98E-09,  avg # of iterations =  3.7

     total cpu time spent up to now is       10.8 secs

     total energy              =    -936.82967419 Ry
     estimated scf accuracy    <       0.00001295 Ry
[tb_dev] Currently allocated     0.00E+00 Mbytes, locked:    0 /   0
[tb_pin] Currently allocated     0.00E+00 Mbytes, locked:    0 /   0

     iteration # 14     ecut=    60.00 Ry     beta= 0.70
     Davidson diagonalization with overlap

---- Real-time Memory Report at c_bands before calling an iterative solver
          1047 MiB given to the printing process from OS
           628 MiB allocation reported by mallinfo(arena+hblkhd)
       1520435 MiB available memory on the node where the printing process lives
     GPU memory used/free/total (MiB): 2257 / 180384 / 182642
------------------
     ethr =  2.98E-09,  avg # of iterations =  4.9

     total cpu time spent up to now is       11.5 secs

     total energy              =    -936.82967445 Ry
     estimated scf accuracy    <       0.00000306 Ry
[tb_dev] Currently allocated     0.00E+00 Mbytes, locked:    0 /   0
[tb_pin] Currently allocated     0.00E+00 Mbytes, locked:    0 /   0

     iteration # 15     ecut=    60.00 Ry     beta= 0.70
     Davidson diagonalization with overlap

---- Real-time Memory Report at c_bands before calling an iterative solver
          1047 MiB given to the printing process from OS
           628 MiB allocation reported by mallinfo(arena+hblkhd)
       1519890 MiB available memory on the node where the printing process lives
     GPU memory used/free/total (MiB): 2257 / 180384 / 182642
------------------
     ethr =  2.98E-09,  avg # of iterations =  2.2

     total cpu time spent up to now is       11.9 secs

     total energy              =    -936.82967435 Ry
     estimated scf accuracy    <       0.00000105 Ry
[tb_dev] Currently allocated     0.00E+00 Mbytes, locked:    0 /   0
[tb_pin] Currently allocated     0.00E+00 Mbytes, locked:    0 /   0

     iteration # 16     ecut=    60.00 Ry     beta= 0.70
     Davidson diagonalization with overlap

---- Real-time Memory Report at c_bands before calling an iterative solver
          1047 MiB given to the printing process from OS
           628 MiB allocation reported by mallinfo(arena+hblkhd)
       1518187 MiB available memory on the node where the printing process lives
     GPU memory used/free/total (MiB): 2257 / 180384 / 182642
------------------
     ethr =  1.55E-09,  avg # of iterations =  4.9

     total cpu time spent up to now is       12.6 secs

     total energy              =    -936.82967464 Ry
     estimated scf accuracy    <          9.4E-09 Ry
[tb_dev] Currently allocated     0.00E+00 Mbytes, locked:    0 /   0
[tb_pin] Currently allocated     0.00E+00 Mbytes, locked:    0 /   0

     iteration # 17     ecut=    60.00 Ry     beta= 0.70
     Davidson diagonalization with overlap

---- Real-time Memory Report at c_bands before calling an iterative solver
          1047 MiB given to the printing process from OS
           628 MiB allocation reported by mallinfo(arena+hblkhd)
       1513893 MiB available memory on the node where the printing process lives
     GPU memory used/free/total (MiB): 2257 / 180384 / 182642
------------------
     ethr =  1.38E-11,  avg # of iterations = 11.7

     total cpu time spent up to now is       14.0 secs

     total energy              =    -936.82967472 Ry
     estimated scf accuracy    <       0.00000041 Ry
[tb_dev] Currently allocated     0.00E+00 Mbytes, locked:    0 /   0
[tb_pin] Currently allocated     0.00E+00 Mbytes, locked:    0 /   0

     iteration # 18     ecut=    60.00 Ry     beta= 0.70
     Davidson diagonalization with overlap

---- Real-time Memory Report at c_bands before calling an iterative solver
          1047 MiB given to the printing process from OS
           628 MiB allocation reported by mallinfo(arena+hblkhd)
       1509103 MiB available memory on the node where the printing process lives
     GPU memory used/free/total (MiB): 2257 / 180384 / 182642
------------------
     ethr =  1.38E-11,  avg # of iterations =  3.6

     total cpu time spent up to now is       14.6 secs

     total energy              =    -936.82967460 Ry
     estimated scf accuracy    <       0.00000027 Ry
[tb_dev] Currently allocated     0.00E+00 Mbytes, locked:    0 /   0
[tb_pin] Currently allocated     0.00E+00 Mbytes, locked:    0 /   0

     iteration # 19     ecut=    60.00 Ry     beta= 0.70
     Davidson diagonalization with overlap

---- Real-time Memory Report at c_bands before calling an iterative solver
          1047 MiB given to the printing process from OS
           628 MiB allocation reported by mallinfo(arena+hblkhd)
       1509103 MiB available memory on the node where the printing process lives
     GPU memory used/free/total (MiB): 2257 / 180384 / 182642
------------------
     ethr =  1.38E-11,  avg # of iterations =  8.5

     total cpu time spent up to now is       15.7 secs

     total energy              =    -936.82967467 Ry
     estimated scf accuracy    <          4.8E-09 Ry
[tb_dev] Currently allocated     0.00E+00 Mbytes, locked:    0 /   0
[tb_pin] Currently allocated     0.00E+00 Mbytes, locked:    0 /   0

     iteration # 20     ecut=    60.00 Ry     beta= 0.70
     Davidson diagonalization with overlap

---- Real-time Memory Report at c_bands before calling an iterative solver
          1047 MiB given to the printing process from OS
           628 MiB allocation reported by mallinfo(arena+hblkhd)
       1521198 MiB available memory on the node where the printing process lives
     GPU memory used/free/total (MiB): 2257 / 180384 / 182642
------------------
     ethr =  7.01E-12,  avg # of iterations =  2.1

     total cpu time spent up to now is       16.1 secs

     total energy              =    -936.82967467 Ry
     estimated scf accuracy    <          6.1E-10 Ry
[tb_dev] Currently allocated     0.00E+00 Mbytes, locked:    0 /   0
[tb_pin] Currently allocated     0.00E+00 Mbytes, locked:    0 /   0

     iteration # 21     ecut=    60.00 Ry     beta= 0.70
     Davidson diagonalization with overlap

---- Real-time Memory Report at c_bands before calling an iterative solver
          1047 MiB given to the printing process from OS
           628 MiB allocation reported by mallinfo(arena+hblkhd)
       1521221 MiB available memory on the node where the printing process lives
     GPU memory used/free/total (MiB): 2257 / 180384 / 182642
------------------
     ethr =  9.01E-13,  avg # of iterations =  5.0

     total cpu time spent up to now is       16.8 secs

     total energy              =    -936.82967467 Ry
     estimated scf accuracy    <          1.3E-11 Ry
[tb_dev] Currently allocated     0.00E+00 Mbytes, locked:    0 /   0
[tb_pin] Currently allocated     0.00E+00 Mbytes, locked:    0 /   0

     iteration # 22     ecut=    60.00 Ry     beta= 0.70
     Davidson diagonalization with overlap

---- Real-time Memory Report at c_bands before calling an iterative solver
          1047 MiB given to the printing process from OS
           628 MiB allocation reported by mallinfo(arena+hblkhd)
       1521868 MiB available memory on the node where the printing process lives
     GPU memory used/free/total (MiB): 2257 / 180384 / 182642
------------------
     ethr =  1.00E-13,  avg # of iterations =  4.7

     total cpu time spent up to now is       17.5 secs

     total energy              =    -936.82967467 Ry
     estimated scf accuracy    <          4.0E-11 Ry
[tb_dev] Currently allocated     0.00E+00 Mbytes, locked:    0 /   0
[tb_pin] Currently allocated     0.00E+00 Mbytes, locked:    0 /   0

     iteration # 23     ecut=    60.00 Ry     beta= 0.70
     Davidson diagonalization with overlap

---- Real-time Memory Report at c_bands before calling an iterative solver
          1047 MiB given to the printing process from OS
           628 MiB allocation reported by mallinfo(arena+hblkhd)
       1522233 MiB available memory on the node where the printing process lives
     GPU memory used/free/total (MiB): 2257 / 180384 / 182642
------------------
     ethr =  1.00E-13,  avg # of iterations =  2.0

     total cpu time spent up to now is       17.9 secs

     total energy              =    -936.82967467 Ry
     estimated scf accuracy    <          6.7E-12 Ry
[tb_dev] Currently allocated     0.00E+00 Mbytes, locked:    0 /   0
[tb_pin] Currently allocated     0.00E+00 Mbytes, locked:    0 /   0

     iteration # 24     ecut=    60.00 Ry     beta= 0.70
     Davidson diagonalization with overlap

---- Real-time Memory Report at c_bands before calling an iterative solver
          1047 MiB given to the printing process from OS
           628 MiB allocation reported by mallinfo(arena+hblkhd)
       1520765 MiB available memory on the node where the printing process lives
     GPU memory used/free/total (MiB): 2257 / 180384 / 182642
------------------
     ethr =  1.00E-13,  avg # of iterations =  2.6

     total cpu time spent up to now is       18.4 secs

     total energy              =    -936.82967467 Ry
     estimated scf accuracy    <          1.6E-12 Ry
[tb_dev] Currently allocated     0.00E+00 Mbytes, locked:    0 /   0
[tb_pin] Currently allocated     0.00E+00 Mbytes, locked:    0 /   0

     iteration # 25     ecut=    60.00 Ry     beta= 0.70
     Davidson diagonalization with overlap

---- Real-time Memory Report at c_bands before calling an iterative solver
          1047 MiB given to the printing process from OS
           628 MiB allocation reported by mallinfo(arena+hblkhd)
       1518106 MiB available memory on the node where the printing process lives
     GPU memory used/free/total (MiB): 2257 / 180384 / 182642
------------------
     ethr =  1.00E-13,  avg # of iterations =  1.0

     total cpu time spent up to now is       18.8 secs

     total energy              =    -936.82967467 Ry
     estimated scf accuracy    <          3.0E-12 Ry
[tb_dev] Currently allocated     0.00E+00 Mbytes, locked:    0 /   0
[tb_pin] Currently allocated     0.00E+00 Mbytes, locked:    0 /   0

     iteration # 26     ecut=    60.00 Ry     beta= 0.70
     Davidson diagonalization with overlap

---- Real-time Memory Report at c_bands before calling an iterative solver
          1047 MiB given to the printing process from OS
           628 MiB allocation reported by mallinfo(arena+hblkhd)
       1516639 MiB available memory on the node where the printing process lives
     GPU memory used/free/total (MiB): 2257 / 180384 / 182642
------------------
     ethr =  1.00E-13,  avg # of iterations =  1.0

     total cpu time spent up to now is       19.2 secs

     total energy              =    -936.82967467 Ry
     estimated scf accuracy    <          2.6E-12 Ry
[tb_dev] Currently allocated     0.00E+00 Mbytes, locked:    0 /   0
[tb_pin] Currently allocated     0.00E+00 Mbytes, locked:    0 /   0

     iteration # 27     ecut=    60.00 Ry     beta= 0.70
     Davidson diagonalization with overlap

---- Real-time Memory Report at c_bands before calling an iterative solver
          1048 MiB given to the printing process from OS
           628 MiB allocation reported by mallinfo(arena+hblkhd)
       1516119 MiB available memory on the node where the printing process lives
     GPU memory used/free/total (MiB): 2257 / 180384 / 182642
------------------
     ethr =  1.00E-13,  avg # of iterations =  1.0

     total cpu time spent up to now is       19.6 secs

     total energy              =    -936.82967467 Ry
     estimated scf accuracy    <          2.0E-12 Ry
[tb_dev] Currently allocated     0.00E+00 Mbytes, locked:    0 /   0
[tb_pin] Currently allocated     0.00E+00 Mbytes, locked:    0 /   0

     iteration # 28     ecut=    60.00 Ry     beta= 0.70
     Davidson diagonalization with overlap

---- Real-time Memory Report at c_bands before calling an iterative solver
          1048 MiB given to the printing process from OS
           628 MiB allocation reported by mallinfo(arena+hblkhd)
       1521091 MiB available memory on the node where the printing process lives
     GPU memory used/free/total (MiB): 2257 / 180384 / 182642
------------------
     ethr =  1.00E-13,  avg # of iterations =  1.0

     total cpu time spent up to now is       20.0 secs

     total energy              =    -936.82967467 Ry
     estimated scf accuracy    <          1.3E-12 Ry
[tb_dev] Currently allocated     0.00E+00 Mbytes, locked:    0 /   0
[tb_pin] Currently allocated     0.00E+00 Mbytes, locked:    0 /   0

     iteration # 29     ecut=    60.00 Ry     beta= 0.70
     Davidson diagonalization with overlap

---- Real-time Memory Report at c_bands before calling an iterative solver
          1048 MiB given to the printing process from OS
           628 MiB allocation reported by mallinfo(arena+hblkhd)
       1521101 MiB available memory on the node where the printing process lives
     GPU memory used/free/total (MiB): 2257 / 180384 / 182642
------------------
     ethr =  1.00E-13,  avg # of iterations =  1.0

     total cpu time spent up to now is       20.4 secs

     End of self-consistent calculation

          k = 0.0000 0.0000 0.0000 (  5391 PWs)   bands (ev):

   -46.1433 -46.1241 -34.0424 -34.0388 -22.5905 -22.5905 -22.5118 -22.4038
   -22.4038 -22.2737  -9.3043  -8.6127  -8.6127  -7.5771  -7.2946  -7.2946
     3.0267   3.0267   3.2062   3.3398   3.3398   4.3478   5.5798   5.6648
     5.6648   6.4623   6.7730   6.7730   6.8870   7.1014   7.1014   7.2434
     7.7489   7.7489

     occupation numbers 
     1.0000   1.0000   1.0000   1.0000   1.0000   1.0000   1.0000   1.0000
     1.0000   1.0000   1.0000   1.0000   1.0000   1.0000   1.0000   1.0000
     1.0000   1.0000   1.0000   1.0000   1.0000   1.0000   1.0000   1.0000
     1.0000   1.0000   1.0000   1.0000   1.0000   1.0000   1.0000   1.0000
     1.0000   1.0000

          k = 0.0000-0.2099 0.0655 (  5390 PWs)   bands (ev):

   -46.1420 -46.1253 -34.0422 -34.0390 -22.5807 -22.5789 -22.4955 -22.4185
   -22.4172 -22.2896  -9.1828  -8.5419  -8.5403  -7.6632  -7.4157  -7.4005
     2.9685   3.0856   3.3745   3.6087   3.6180   4.3993   5.2496   5.3653
     5.4712   6.4308   6.5434   6.8055   6.8266   7.1743   7.2777   7.3222
     7.5818   7.6490

     occupation numbers 
     1.0000   1.0000   1.0000   1.0000   1.0000   1.0000   1.0000   1.0000
     1.0000   1.0000   1.0000   1.0000   1.0000   1.0000   1.0000   1.0000
     1.0000   1.0000   1.0000   1.0000   1.0000   1.0000   1.0000   1.0000
     1.0000   1.0000   1.0000   1.0000   1.0000   1.0000   1.0000   1.0000
     1.0000   1.0000

          k = 0.0000-0.4198 0.1310 (  5383 PWs)   bands (ev):

   -46.1384 -46.1288 -34.0416 -34.0397 -22.5515 -22.5464 -22.4573 -22.4537
   -22.4510 -22.3331  -8.8491  -8.3494  -8.3395  -7.9187  -7.7150  -7.6699
     3.1458   3.3324   3.6696   4.1521   4.2044   4.5145   4.5434   4.8814
     5.1548   5.8218   6.2548   6.5615   7.1055   7.1160   7.2322   7.3776
     7.4915   7.6451

     occupation numbers 
     1.0000   1.0000   1.0000   1.0000   1.0000   1.0000   1.0000   1.0000
     1.0000   1.0000   1.0000   1.0000   1.0000   1.0000   1.0000   1.0000
     1.0000   1.0000   1.0000   1.0000   1.0000   1.0000   1.0000   1.0000
     1.0000   1.0000   1.0000   1.0000   1.0000   1.0000   1.0000   1.0000
     1.0000   1.0000

          k =-0.0000 0.6296-0.1965 (  5406 PWs)   bands (ev):

   -46.1336 -46.1336 -34.0407 -34.0407 -22.5068 -22.5068 -22.5005 -22.5005
   -22.3923 -22.3923  -8.4047  -8.4047  -8.0679  -8.0679  -7.9723  -7.9723
     3.5565   3.5565   3.8420   3.8420   4.3438   4.3438   4.8568   4.8568
     5.3729   5.3729   5.8666   5.8666   7.2163   7.2163   7.4030   7.4030
     7.5155   7.5155

     occupation numbers 
     1.0000   1.0000   1.0000   1.0000   1.0000   1.0000   1.0000   1.0000
     1.0000   1.0000   1.0000   1.0000   1.0000   1.0000   1.0000   1.0000
     1.0000   1.0000   1.0000   1.0000   1.0000   1.0000   1.0000   1.0000
     1.0000   1.0000   1.0000   1.0000   1.0000   1.0000   1.0000   1.0000
     1.0000   1.0000

          k =-0.1818-0.1049 0.1310 (  5405 PWs)   bands (ev):

   -46.1417 -46.1257 -34.0421 -34.0391 -22.5941 -22.5696 -22.4817 -22.4460
   -22.4014 -22.2881  -9.1766  -8.5929  -8.4257  -7.7777  -7.4401  -7.3358
     3.0385   3.0886   3.2552   3.6212   3.7278   4.5602   4.8752   5.5205
     5.6203   6.4280   6.4920   6.7281   6.7946   7.0534   7.2103   7.2941
     7.6125   7.6715

     occupation numbers 
     1.0000   1.0000   1.0000   1.0000   1.0000   1.0000   1.0000   1.0000
     1.0000   1.0000   1.0000   1.0000   1.0000   1.0000   1.0000   1.0000
     1.0000   1.0000   1.0000   1.0000   1.0000   1.0000   1.0000   1.0000
     1.0000   1.0000   1.0000   1.0000   1.0000   1.0000   1.0000   1.0000
     1.0000   1.0000

          k =-0.1818-0.3148 0.1965 (  5396 PWs)   bands (ev):

   -46.1392 -46.1281 -34.0417 -34.0396 -22.5862 -22.5507 -22.4947 -22.4344
   -22.4138 -22.3091  -8.9840  -8.5059  -8.1975  -8.0563  -7.5735  -7.4811
     2.9697   3.2732   3.6614   3.8586   4.0441   4.3232   4.8687   5.0705
     5.5205   6.0516   6.4605   6.6875   6.7840   6.9959   7.1051   7.3313
     7.4804   7.6546

     occupation numbers 
     1.0000   1.0000   1.0000   1.0000   1.0000   1.0000   1.0000   1.0000
     1.0000   1.0000   1.0000   1.0000   1.0000   1.0000   1.0000   1.0000
     1.0000   1.0000   1.0000   1.0000   1.0000   1.0000   1.0000   1.0000
     1.0000   1.0000   1.0000   1.0000   1.0000   1.0000   1.0000   1.0000
     1.0000   1.0000

          k =-0.1818 0.7346-0.1310 (  5390 PWs)   bands (ev):

   -46.1352 -46.1320 -34.0410 -34.0404 -22.5564 -22.5433 -22.5131 -22.4512
   -22.3799 -22.3528  -8.6397  -8.4411  -8.2973  -7.8621  -7.8388  -7.7648
     3.1710   3.4371   3.6811   4.1033   4.3208   4.4690   4.6594   4.9300
     5.2284   5.6913   6.1672   6.4876   6.8852   7.0690   7.1614   7.3090
     7.4923   7.5868

     occupation numbers 
     1.0000   1.0000   1.0000   1.0000   1.0000   1.0000   1.0000   1.0000
     1.0000   1.0000   1.0000   1.0000   1.0000   1.0000   1.0000   1.0000
     1.0000   1.0000   1.0000   1.0000   1.0000   1.0000   1.0000   1.0000
     1.0000   1.0000   1.0000   1.0000   1.0000   1.0000   1.0000   1.0000
     1.0000   1.0000

          k =-0.1818 0.5247-0.0655 (  5398 PWs)   bands (ev):

   -46.1364 -46.1308 -34.0413 -34.0401 -22.5766 -22.5100 -22.5003 -22.4651
   -22.4096 -22.3347  -8.7629  -8.2742  -8.1776  -8.0747  -7.9797  -7.5694
     3.1188   3.5340   3.7143   3.8687   4.0907   4.5367   4.8170   5.0041
     5.3508   5.7075   6.0248   6.7235   6.7638   7.0459   7.1707   7.3965
     7.4738   7.6227

     occupation numbers 
     1.0000   1.0000   1.0000   1.0000   1.0000   1.0000   1.0000   1.0000
     1.0000   1.0000   1.0000   1.0000   1.0000   1.0000   1.0000   1.0000
     1.0000   1.0000   1.0000   1.0000   1.0000   1.0000   1.0000   1.0000
     1.0000   1.0000   1.0000   1.0000   1.0000   1.0000   1.0000   1.0000
     1.0000   1.0000

          k =-0.1818 0.3148 0.0000 (  5388 PWs)   bands (ev):

   -46.1401 -46.1272 -34.0419 -34.0394 -22.5870 -22.5471 -22.4643 -22.4585
   -22.4257 -22.3056  -9.0250  -8.4759  -8.3611  -7.8395  -7.6724  -7.4149
     3.0096   3.1945   3.5700   3.6271   4.1723   4.5453   4.6787   4.9371
     5.6288   6.2913   6.4742   6.5754   6.9721   7.1278   7.1433   7.3511
     7.4174   7.6877

     occupation numbers 
     1.0000   1.0000   1.0000   1.0000   1.0000   1.0000   1.0000   1.0000
     1.0000   1.0000   1.0000   1.0000   1.0000   1.0000   1.0000   1.0000
     1.0000   1.0000   1.0000   1.0000   1.0000   1.0000   1.0000   1.0000
     1.0000   1.0000   1.0000   1.0000   1.0000   1.0000   1.0000   1.0000
     1.0000   1.0000

          k =-0.3635-0.2099 0.2619 (  5397 PWs)   bands (ev):

   -46.1384 -46.1288 -34.0416 -34.0397 -22.6011 -22.5616 -22.5464 -22.3969
   -22.3844 -22.2977  -9.0026  -8.5541  -8.3368  -7.9215  -7.5154  -7.4218
     3.0046   3.1341   3.3920   3.5884   4.1087   4.4692   5.1726   5.3602
     5.8980   6.1210   6.3388   6.5917   6.6610   6.8373   6.9668   7.2811
     7.3345   7.5846

     occupation numbers 
     1.0000   1.0000   1.0000   1.0000   1.0000   1.0000   1.0000   1.0000
     1.0000   1.0000   1.0000   1.0000   1.0000   1.0000   1.0000   1.0000
     1.0000   1.0000   1.0000   1.0000   1.0000   1.0000   1.0000   1.0000
     1.0000   1.0000   1.0000   1.0000   1.0000   1.0000   1.0000   1.0000
     1.0000   1.0000

          k =-0.3635 0.8395-0.0655 (  5391 PWs)   bands (ev):

   -46.1364 -46.1308 -34.0413 -34.0401 -22.5922 -22.5832 -22.5477 -22.4098
   -22.3447 -22.3138  -8.8562  -8.5699  -8.4636  -7.6854  -7.6226  -7.5524
     2.9307   3.1320   3.3721   3.6803   4.3548   4.7197   4.9546   5.4021
     5.6898   6.0832   6.3262   6.4774   6.6129   6.8491   6.9889   7.1010
     7.3679   7.6122

     occupation numbers 
     1.0000   1.0000   1.0000   1.0000   1.0000   1.0000   1.0000   1.0000
     1.0000   1.0000   1.0000   1.0000   1.0000   1.0000   1.0000   1.0000
     1.0000   1.0000   1.0000   1.0000   1.0000   1.0000   1.0000   1.0000
     1.0000   1.0000   1.0000   1.0000   1.0000   1.0000   1.0000   1.0000
     1.0000   1.0000

          k =-0.3635 0.6296 0.0000 (  5404 PWs)   bands (ev):

   -46.1336 -46.1336 -34.0407 -34.0407 -22.5940 -22.5593 -22.5098 -22.4486
   -22.3552 -22.3285  -8.7065  -8.5707  -8.2745  -7.8957  -7.7975  -7.5482
     2.9903   3.1770   3.6730   3.9643   4.3177   4.4437   4.9030   5.2350
     5.5398   5.8259   6.1572   6.4411   6.8580   6.9292   6.9717   7.3079
     7.3601   7.6127

     occupation numbers 
     1.0000   1.0000   1.0000   1.0000   1.0000   1.0000   1.0000   1.0000
     1.0000   1.0000   1.0000   1.0000   1.0000   1.0000   1.0000   1.0000
     1.0000   1.0000   1.0000   1.0000   1.0000   1.0000   1.0000   1.0000
     1.0000   1.0000   1.0000   1.0000   1.0000   1.0000   1.0000   1.0000
     1.0000   1.0000

          k = 0.5453 0.3148-0.3929 (  5380 PWs)   bands (ev):

   -46.1368 -46.1304 -34.0414 -34.0400 -22.6051 -22.5983 -22.5623 -22.3942
   -22.3300 -22.2988  -8.9371  -8.6246  -8.5189  -7.6200  -7.5385  -7.4632
     2.9907   2.9958   3.1238   3.3315   4.6658   4.9219   5.2711   5.6423
     5.7067   5.8441   6.3187   6.3297   6.7097   6.7653   6.9566   7.1188
     7.3096   7.5479

     occupation numbers 
     1.0000   1.0000   1.0000   1.0000   1.0000   1.0000   1.0000   1.0000
     1.0000   1.0000   1.0000   1.0000   1.0000   1.0000   1.0000   1.0000
     1.0000   1.0000   1.0000   1.0000   1.0000   1.0000   1.0000   1.0000
     1.0000   1.0000   1.0000   1.0000   1.0000   1.0000   1.0000   1.0000
     1.0000   1.0000

          k =-0.0000-0.0000 0.1965 (  5401 PWs)   bands (ev):

   -46.1421 -46.1254 -34.0421 -34.0390 -22.5785 -22.5785 -22.4969 -22.4168
   -22.4168 -22.2907  -9.1995  -8.5335  -8.5335  -7.7068  -7.3944  -7.3944
     3.1308   3.1308   3.3465   3.5620   3.5620   4.4665   5.3283   5.4089
     5.4089   6.4567   6.4567   6.5611   6.7041   7.1317   7.1317   7.2507
     7.7565   7.7565

     occupation numbers 
     1.0000   1.0000   1.0000   1.0000   1.0000   1.0000   1.0000   1.0000
     1.0000   1.0000   1.0000   1.0000   1.0000   1.0000   1.0000   1.0000
     1.0000   1.0000   1.0000   1.0000   1.0000   1.0000   1.0000   1.0000
     1.0000   1.0000   1.0000   1.0000   1.0000   1.0000   1.0000   1.0000
     1.0000   1.0000

          k =-0.0000-0.2099 0.2619 (  5387 PWs)   bands (ev):

   -46.1401 -46.1272 -34.0418 -34.0394 -22.5872 -22.5426 -22.4666 -22.4552
   -22.4266 -22.3067  -9.0489  -8.4658  -8.3498  -7.9059  -7.6298  -7.4145
     3.0463   3.2711   3.5859   3.8274   4.0474   4.6111   4.8010   5.0078
     5.3940   5.9348   6.3528   6.6080   6.7134   7.0977   7.2659   7.3168
     7.6033   7.6532

     occupation numbers 
     1.0000   1.0000   1.0000   1.0000   1.0000   1.0000   1.0000   1.0000
     1.0000   1.0000   1.0000   1.0000   1.0000   1.0000   1.0000   1.0000
     1.0000   1.0000   1.0000   1.0000   1.0000   1.0000   1.0000   1.0000
     1.0000   1.0000   1.0000   1.0000   1.0000   1.0000   1.0000   1.0000
     1.0000   1.0000

          k =-0.0000 0.8395-0.0655 (  5383 PWs)   bands (ev):

   -46.1364 -46.1309 -34.0412 -34.0402 -22.5781 -22.5054 -22.4952 -22.4685
   -22.4121 -22.3349  -8.7721  -8.2742  -8.2433  -8.0476  -7.9377  -7.5806
     3.0716   3.4862   3.9794   4.1106   4.2394   4.5091   4.5202   5.0657
     5.2326   5.3639   6.1299   6.5748   6.9157   6.9395   7.2591   7.3418
     7.5033   7.5334

     occupation numbers 
     1.0000   1.0000   1.0000   1.0000   1.0000   1.0000   1.0000   1.0000
     1.0000   1.0000   1.0000   1.0000   1.0000   1.0000   1.0000   1.0000
     1.0000   1.0000   1.0000   1.0000   1.0000   1.0000   1.0000   1.0000
     1.0000   1.0000   1.0000   1.0000   1.0000   1.0000   1.0000   1.0000
     1.0000   1.0000

          k =-0.0000 0.6296 0.0000 (  5392 PWs)   bands (ev):

   -46.1352 -46.1320 -34.0410 -34.0404 -22.5531 -22.5451 -22.5173 -22.4477
   -22.3794 -22.3541  -8.6467  -8.4397  -8.2819  -7.8692  -7.8649  -7.7413
     3.3564   3.4365   3.5790   3.7754   4.2367   4.5059   4.8655   5.0771
     5.4043   5.6840   6.0827   6.3370   6.8597   7.0804   7.1704   7.3177
     7.4034   7.6363

     occupation numbers 
     1.0000   1.0000   1.0000   1.0000   1.0000   1.0000   1.0000   1.0000
     1.0000   1.0000   1.0000   1.0000   1.0000   1.0000   1.0000   1.0000
     1.0000   1.0000   1.0000   1.0000   1.0000   1.0000   1.0000   1.0000
     1.0000   1.0000   1.0000   1.0000   1.0000   1.0000   1.0000   1.0000
     1.0000   1.0000

          k =-0.0000 0.4198 0.0655 (  5396 PWs)   bands (ev):

   -46.1392 -46.1281 -34.0418 -34.0396 -22.5850 -22.5532 -22.4960 -22.4338
   -22.4129 -22.3091  -8.9771  -8.5124  -8.1798  -8.0618  -7.5855  -7.4730
     3.1221   3.2424   3.3091   3.9817   4.0291   4.2455   4.8968   5.2167
     5.5261   6.2166   6.5367   6.6731   6.7607   6.8342   7.1577   7.3512
     7.4526   7.6547

     occupation numbers 
     1.0000   1.0000   1.0000   1.0000   1.0000   1.0000   1.0000   1.0000
     1.0000   1.0000   1.0000   1.0000   1.0000   1.0000   1.0000   1.0000
     1.0000   1.0000   1.0000   1.0000   1.0000   1.0000   1.0000   1.0000
     1.0000   1.0000   1.0000   1.0000   1.0000   1.0000   1.0000   1.0000
     1.0000   1.0000

          k =-0.1818-0.1049 0.3274 (  5413 PWs)   bands (ev):

   -46.1393 -46.1281 -34.0417 -34.0396 -22.5843 -22.5498 -22.4934 -22.4354
   -22.4122 -22.3105  -9.0093  -8.4928  -8.1692  -8.1069  -7.5860  -7.4601
     3.1892   3.2468   3.6374   3.9495   3.9904   4.3410   4.8960   5.2090
     5.3851   5.9383   6.2253   6.5639   6.7467   6.9187   7.0592   7.3288
     7.5357   7.6813

     occupation numbers 
     1.0000   1.0000   1.0000   1.0000   1.0000   1.0000   1.0000   1.0000
     1.0000   1.0000   1.0000   1.0000   1.0000   1.0000   1.0000   1.0000
     1.0000   1.0000   1.0000   1.0000   1.0000   1.0000   1.0000   1.0000
     1.0000   1.0000   1.0000   1.0000   1.0000   1.0000   1.0000   1.0000
     1.0000   1.0000

          k =-0.1818 0.9445 0.0000 (  5399 PWs)   bands (ev):

   -46.1369 -46.1304 -34.0413 -34.0401 -22.5916 -22.5441 -22.5224 -22.4311
   -22.3831 -22.3181  -8.8712  -8.4118  -8.3724  -7.8886  -7.7840  -7.4896
     3.0407   3.3415   3.6662   4.0380   4.1540   4.4751   4.7045   5.2293
     5.5093   5.8518   6.2569   6.4458   6.6488   6.8746   7.0736   7.2815
     7.4140   7.5636

     occupation numbers 
     1.0000   1.0000   1.0000   1.0000   1.0000   1.0000   1.0000   1.0000
     1.0000   1.0000   1.0000   1.0000   1.0000   1.0000   1.0000   1.0000
     1.0000   1.0000   1.0000   1.0000   1.0000   1.0000   1.0000   1.0000
     1.0000   1.0000   1.0000   1.0000   1.0000   1.0000   1.0000   1.0000
     1.0000   1.0000

          k =-0.1818 0.7346 0.0655 (  5386 PWs)   bands (ev):

   -46.1336 -46.1336 -34.0407 -34.0407 -22.5816 -22.5799 -22.4774 -22.4749
   -22.3407 -22.3399  -8.6674  -8.6504  -8.1632  -8.0598  -7.6422  -7.6185
     3.0708   3.1894   3.5944   3.8747   4.3868   4.7744   4.8084   5.1085
     5.3933   5.8740   6.3375   6.4723   6.5666   6.8368   7.0682   7.2579
     7.4164   7.5463

     occupation numbers 
     1.0000   1.0000   1.0000   1.0000   1.0000   1.0000   1.0000   1.0000
     1.0000   1.0000   1.0000   1.0000   1.0000   1.0000   1.0000   1.0000
     1.0000   1.0000   1.0000   1.0000   1.0000   1.0000   1.0000   1.0000
     1.0000   1.0000   1.0000   1.0000   1.0000   1.0000   1.0000   1.0000
     1.0000   1.0000

          k =-0.1818 0.5247 0.1310 (  5391 PWs)   bands (ev):

   -46.1368 -46.1304 -34.0414 -34.0401 -22.5916 -22.5461 -22.5253 -22.4312
   -22.3820 -22.3174  -8.8518  -8.4096  -8.3589  -7.8904  -7.7943  -7.4868
     2.9933   3.3556   3.5065   3.7945   4.1448   4.5686   4.7580   5.3459
     5.5684   6.0679   6.1773   6.5035   6.8078   6.9719   7.0817   7.1626
     7.4150   7.6328

     occupation numbers 
     1.0000   1.0000   1.0000   1.0000   1.0000   1.0000   1.0000   1.0000
     1.0000   1.0000   1.0000   1.0000   1.0000   1.0000   1.0000   1.0000
     1.0000   1.0000   1.0000   1.0000   1.0000   1.0000   1.0000   1.0000
     1.0000   1.0000   1.0000   1.0000   1.0000   1.0000   1.0000   1.0000
     1.0000   1.0000

          k = 0.7271 0.4198-0.3274 (  5396 PWs)   bands (ev):

   -46.1364 -46.1309 -34.0413 -34.0401 -22.5908 -22.5827 -22.5479 -22.4082
   -22.3449 -22.3148  -8.8733  -8.5798  -8.4510  -7.6866  -7.6427  -7.5340
     3.1475   3.2021   3.2117   3.6414   4.4414   4.6194   5.0545   5.3311
     5.8628   5.9558   6.2789   6.3331   6.7168   6.7299   6.9774   7.0583
     7.2514   7.6031

     occupation numbers 
     1.0000   1.0000   1.0000   1.0000   1.0000   1.0000   1.0000   1.0000
     1.0000   1.0000   1.0000   1.0000   1.0000   1.0000   1.0000   1.0000
     1.0000   1.0000   1.0000   1.0000   1.0000   1.0000   1.0000   1.0000
     1.0000   1.0000   1.0000   1.0000   1.0000   1.0000   1.0000   1.0000
     1.0000   1.0000

          k = 0.7271 0.2099-0.2619 (  5399 PWs)   bands (ev):

   -46.1352 -46.1320 -34.0411 -34.0404 -22.5969 -22.5942 -22.5230 -22.4293
   -22.3295 -22.3189  -8.7993  -8.6630  -8.3556  -7.8298  -7.5845  -7.5221
     2.9864   3.0136   3.3729   3.9087   4.1803   4.9212   5.1163   5.3225
     5.7678   5.9183   6.1695   6.3307   6.5833   6.7592   7.0652   7.1889
     7.2977   7.5833

     occupation numbers 
     1.0000   1.0000   1.0000   1.0000   1.0000   1.0000   1.0000   1.0000
     1.0000   1.0000   1.0000   1.0000   1.0000   1.0000   1.0000   1.0000
     1.0000   1.0000   1.0000   1.0000   1.0000   1.0000   1.0000   1.0000
     1.0000   1.0000   1.0000   1.0000   1.0000   1.0000   1.0000   1.0000
     1.0000   1.0000

          k = 0.7271-0.0000-0.1965 (  5398 PWs)   bands (ev):

   -46.1336 -46.1336 -34.0407 -34.0407 -22.5810 -22.5810 -22.4769 -22.4769
   -22.3399 -22.3399  -8.6532  -8.6532  -8.1149  -8.1149  -7.6284  -7.6284
     3.0779   3.0779   3.7677   3.7677   4.5098   4.5098   4.9621   4.9621
     5.6405   5.6405   6.4486   6.4486   6.7707   6.7707   7.1601   7.1601
     7.5146   7.5146

     occupation numbers 
     1.0000   1.0000   1.0000   1.0000   1.0000   1.0000   1.0000   1.0000
     1.0000   1.0000   1.0000   1.0000   1.0000   1.0000   1.0000   1.0000
     1.0000   1.0000   1.0000   1.0000   1.0000   1.0000   1.0000   1.0000
     1.0000   1.0000   1.0000   1.0000   1.0000   1.0000   1.0000   1.0000
     1.0000   1.0000

          k = 0.5453 0.3148-0.1965 (  5407 PWs)   bands (ev):

   -46.1364 -46.1308 -34.0413 -34.0401 -22.5912 -22.5836 -22.5490 -22.4086
   -22.3447 -22.3144  -8.8588  -8.5724  -8.4558  -7.6901  -7.6328  -7.5399
     3.0771   3.1935   3.2039   3.4909   4.4355   4.7565   5.1019   5.3541
     5.7608   5.9323   6.4000   6.5416   6.6756   6.7108   7.0263   7.0762
     7.2505   7.6212

     occupation numbers 
     1.0000   1.0000   1.0000   1.0000   1.0000   1.0000   1.0000   1.0000
     1.0000   1.0000   1.0000   1.0000   1.0000   1.0000   1.0000   1.0000
     1.0000   1.0000   1.0000   1.0000   1.0000   1.0000   1.0000   1.0000
     1.0000   1.0000   1.0000   1.0000   1.0000   1.0000   1.0000   1.0000
     1.0000   1.0000

          k =-0.0000-0.0000 0.3929 (  5392 PWs)   bands (ev):

   -46.1385 -46.1289 -34.0415 -34.0397 -22.5453 -22.5453 -22.4554 -22.4520
   -22.4520 -22.3364  -8.9069  -8.3117  -8.3117  -8.0485  -7.6569  -7.6569
     3.4801   3.4801   3.7177   4.1327   4.1327   4.7781   4.7781   4.7941
     4.8346   5.7666   5.7666   6.1397   6.8055   7.2327   7.2428   7.2428
     7.6620   7.6620

     occupation numbers 
     1.0000   1.0000   1.0000   1.0000   1.0000   1.0000   1.0000   1.0000
     1.0000   1.0000   1.0000   1.0000   1.0000   1.0000   1.0000   1.0000
     1.0000   1.0000   1.0000   1.0000   1.0000   1.0000   1.0000   1.0000
     1.0000   1.0000   1.0000   1.0000   1.0000   1.0000   1.0000   1.0000
     1.0000   1.0000

          k =-0.0000 1.0494 0.0655 (  5402 PWs)   bands (ev):

   -46.1365 -46.1309 -34.0412 -34.0401 -22.5753 -22.5047 -22.4944 -22.4654
   -22.4135 -22.3365  -8.8061  -8.2995  -8.2178  -8.0541  -7.9448  -7.5672
     3.2988   3.6331   3.8699   4.1706   4.2378   4.4541   4.7317   5.0613
     5.1728   5.2159   5.8217   6.3813   6.7963   6.8615   7.2717   7.4234
     7.4718   7.5259

     occupation numbers 
     1.0000   1.0000   1.0000   1.0000   1.0000   1.0000   1.0000   1.0000
     1.0000   1.0000   1.0000   1.0000   1.0000   1.0000   1.0000   1.0000
     1.0000   1.0000   1.0000   1.0000   1.0000   1.0000   1.0000   1.0000
     1.0000   1.0000   1.0000   1.0000   1.0000   1.0000   1.0000   1.0000
     1.0000   1.0000

          k =-0.0000 0.8395 0.1310 (  5386 PWs)   bands (ev):

   -46.1336 -46.1336 -34.0407 -34.0407 -22.5939 -22.5555 -22.5118 -22.4444
   -22.3576 -22.3290  -8.7184  -8.6057  -8.2539  -7.9089  -7.7794  -7.5522
     3.0423   3.4253   3.5650   4.0146   4.2957   4.3592   5.0603   5.2015
     5.6255   5.6966   6.2326   6.2592   6.5232   6.8595   7.1291   7.1426
     7.3182   7.6113

     occupation numbers 
     1.0000   1.0000   1.0000   1.0000   1.0000   1.0000   1.0000   1.0000
     1.0000   1.0000   1.0000   1.0000   1.0000   1.0000   1.0000   1.0000
     1.0000   1.0000   1.0000   1.0000   1.0000   1.0000   1.0000   1.0000
     1.0000   1.0000   1.0000   1.0000   1.0000   1.0000   1.0000   1.0000
     1.0000   1.0000

          k = 0.9088 0.5247-0.2619 (  5394 PWs)   bands (ev):

   -46.1353 -46.1321 -34.0410 -34.0403 -22.5519 -22.5414 -22.5127 -22.4466
   -22.3815 -22.3560  -8.6974  -8.4789  -8.2600  -7.8792  -7.8510  -7.7279
     3.5680   3.5895   3.7210   4.1657   4.3327   4.3886   4.5985   4.8821
     5.2790   5.5445   5.8996   6.0212   6.8714   6.9609   7.1513   7.3222
     7.3634   7.6011

     occupation numbers 
     1.0000   1.0000   1.0000   1.0000   1.0000   1.0000   1.0000   1.0000
     1.0000   1.0000   1.0000   1.0000   1.0000   1.0000   1.0000   1.0000
     1.0000   1.0000   1.0000   1.0000   1.0000   1.0000   1.0000   1.0000
     1.0000   1.0000   1.0000   1.0000   1.0000   1.0000   1.0000   1.0000
     1.0000   1.0000

          k = 0.9088 0.3148-0.1965 (  5400 PWs)   bands (ev):

   -46.1336 -46.1336 -34.0407 -34.0407 -22.5795 -22.5795 -22.4750 -22.4750
   -22.3410 -22.3410  -8.6785  -8.6785  -8.1073  -8.1073  -7.6278  -7.6278
     3.2405   3.2405   3.7168   3.7168   4.6468   4.6468   4.8662   4.8662
     5.6275   5.6275   6.2384   6.2384   6.7298   6.7298   7.0926   7.0926
     7.4769   7.4769

     occupation numbers 
     1.0000   1.0000   1.0000   1.0000   1.0000   1.0000   1.0000   1.0000
     1.0000   1.0000   1.0000   1.0000   1.0000   1.0000   1.0000   1.0000
     1.0000   1.0000   1.0000   1.0000   1.0000   1.0000   1.0000   1.0000
     1.0000   1.0000   1.0000   1.0000   1.0000   1.0000   1.0000   1.0000
     1.0000   1.0000

          k =-0.0000 0.0000-0.5894 (  5404 PWs)   bands (ev):

   -46.1337 -46.1337 -34.0406 -34.0406 -22.4991 -22.4991 -22.4991 -22.4991
   -22.3970 -22.3970  -8.4897  -8.4897  -7.9943  -7.9943  -7.9943  -7.9943
     4.0562   4.0562   4.0562   4.0562   4.2238   4.2238   4.9309   4.9309
     4.9309   4.9309   5.4358   5.4358   7.0710   7.0710   7.4552   7.4552
     7.4552   7.4552

     occupation numbers 
     1.0000   1.0000   1.0000   1.0000   1.0000   1.0000   1.0000   1.0000
     1.0000   1.0000   1.0000   1.0000   1.0000   1.0000   1.0000   1.0000
     1.0000   1.0000   1.0000   1.0000   1.0000   1.0000   1.0000   1.0000
     1.0000   1.0000   1.0000   1.0000   1.0000   1.0000   1.0000   1.0000
     1.0000   1.0000

     highest occupied level (ev):     7.7565

!    total energy              =    -936.82967467 Ry
     estimated scf accuracy    <          3.7E-13 Ry

     The total energy is the sum of the following terms:
     one-electron contribution =    -134.04151339 Ry
     hartree contribution      =     103.13403104 Ry
     xc contribution           =    -108.53376972 Ry
     ewald contribution        =    -333.93109322 Ry
     one-center paw contrib.   =    -463.45732938 Ry
      -> PAW hartree energy AE =     296.93826568 Ry
      -> PAW hartree energy PS =    -295.40463398 Ry
      -> PAW xc energy AE      =    -561.18059462 Ry
      -> PAW xc energy PS      =      96.18963355 Ry
      -> total E_H with PAW    =     104.66766273 Ry
      -> total E_XC with PAW   =    -573.52473078 Ry

     convergence has been achieved in  29 iterations

     Forces acting on atoms (cartesian axes, Ry/au):

     atom    1 type  1   force =    -0.00000000    0.00000000    0.00215161
     atom    2 type  1   force =     0.00000000    0.00000000    0.00215161
     atom    3 type  2   force =    -0.01935721    0.00782771    0.00323388
     atom    4 type  2   force =     0.00289961   -0.02067769    0.00323388
     atom    5 type  2   force =     0.01645761    0.01284998    0.00323388
     atom    6 type  2   force =    -0.00289961   -0.02067769    0.00323388
     atom    7 type  2   force =     0.01935721    0.00782771    0.00323388
     atom    8 type  2   force =    -0.01645761    0.01284998    0.00323388
     atom    9 type  3   force =    -0.00000000    0.00000000   -0.01185324
     atom   10 type  3   force =    -0.00000000   -0.00000000   -0.01185324
     The non-local contrib.  to forces
     atom    1 type  1   force =     0.00000000    0.00000000    0.01862958
     atom    2 type  1   force =     0.00000000   -0.00000000    0.01862958
     atom    3 type  2   force =     0.31107262   -0.14508865   -0.05366874
     atom    4 type  2   force =    -0.02988585    0.34194112   -0.05366874
     atom    5 type  2   force =    -0.28118677   -0.19685247   -0.05366874
     atom    6 type  2   force =     0.02988585    0.34194112   -0.05366874
     atom    7 type  2   force =    -0.31107262   -0.14508865   -0.05366874
     atom    8 type  2   force =     0.28118677   -0.19685247   -0.05366874
     atom    9 type  3   force =     0.00000000   -0.00000000   -0.02074329
     atom   10 type  3   force =    -0.00000000    0.00000000   -0.02074329
     The ionic contribution  to forces
     atom    1 type  1   force =     0.00000000    0.00000000   -0.99575112
     atom    2 type  1   force =    -0.00000000   -0.00000000   -0.99575112
     atom    3 type  2   force =    -3.82795273    2.69519270    0.48715284
     atom    4 type  2   force =    -0.42012898   -4.66270066    0.48715284
     atom    5 type  2   force =     4.24808171    1.96750796    0.48715284
     atom    6 type  2   force =     0.42012898   -4.66270066    0.48715284
     atom    7 type  2   force =     3.82795273    2.69519270    0.48715284
     atom    8 type  2   force =    -4.24808171    1.96750796    0.48715284
     atom    9 type  3   force =     0.00000000   -0.00000000   -0.46570740
     atom   10 type  3   force =     0.00000000   -0.00000000   -0.46570740
     The local contribution  to forces
     atom    1 type  1   force =     0.00000000   -0.00000000    0.97927319
     atom    2 type  1   force =    -0.00000000    0.00000000    0.97927319
     atom    3 type  2   force =     3.49840816   -2.54340958   -0.43013862
     atom    4 type  2   force =     0.45345323    4.30141514   -0.43013862
     atom    5 type  2   force =    -3.95186139   -1.75800555   -0.43013862
     atom    6 type  2   force =    -0.45345323    4.30141514   -0.43013861
     atom    7 type  2   force =    -3.49840817   -2.54340959   -0.43013861
     atom    8 type  2   force =     3.95186139   -1.75800555   -0.43013861
     atom    9 type  3   force =     0.00000000    0.00000000    0.47974484
     atom   10 type  3   force =    -0.00000000    0.00000000    0.47974485
     The core correction contribution to forces
     atom    1 type  1   force =     0.00000000    0.00000000    0.00000000
     atom    2 type  1   force =     0.00000000    0.00000000    0.00000000
     atom    3 type  2   force =    -0.00088552    0.00113334   -0.00011156
     atom    4 type  2   force =    -0.00053874   -0.00133355   -0.00011156
     atom    5 type  2   force =     0.00142426    0.00020022   -0.00011156
     atom    6 type  2   force =     0.00053874   -0.00133355   -0.00011156
     atom    7 type  2   force =     0.00088552    0.00113334   -0.00011156
     atom    8 type  2   force =    -0.00142426    0.00020022   -0.00011156
     atom    9 type  3   force =     0.00000000    0.00000000   -0.00514743
     atom   10 type  3   force =    -0.00000000   -0.00000000   -0.00514743
     The Hubbard contrib.    to forces
     atom    1 type  1   force =     0.00000000    0.00000000    0.00000000
     atom    2 type  1   force =     0.00000000    0.00000000    0.00000000
     atom    3 type  2   force =     0.00000000    0.00000000    0.00000000
     atom    4 type  2   force =     0.00000000    0.00000000    0.00000000
     atom    5 type  2   force =     0.00000000    0.00000000    0.00000000
     atom    6 type  2   force =     0.00000000    0.00000000    0.00000000
     atom    7 type  2   force =     0.00000000    0.00000000    0.00000000
     atom    8 type  2   force =     0.00000000    0.00000000    0.00000000
     atom    9 type  3   force =     0.00000000    0.00000000    0.00000000
     atom   10 type  3   force =     0.00000000    0.00000000    0.00000000
     The SCF correction term to forces
     atom    1 type  1   force =     0.00000000   -0.00000000    0.00000001
     atom    2 type  1   force =    -0.00000000   -0.00000000    0.00000001
     atom    3 type  2   force =     0.00000026   -0.00000008   -0.00000001
     atom    4 type  2   force =    -0.00000005    0.00000026   -0.00000001
     atom    5 type  2   force =    -0.00000020   -0.00000018   -0.00000001
     atom    6 type  2   force =     0.00000005    0.00000026   -0.00000001
     atom    7 type  2   force =    -0.00000026   -0.00000008   -0.00000001
     atom    8 type  2   force =     0.00000020   -0.00000018   -0.00000001
     atom    9 type  3   force =    -0.00000000    0.00000000    0.00000008
     atom   10 type  3   force =     0.00000000    0.00000000    0.00000008

     Total force =     0.054487     Total SCF correction =     0.000001


     Computing stress (Cartesian axis) and pressure

          total   stress  (Ry/bohr**3)                   (kbar)     P=       82.30
   0.00070245   0.00000000   0.00000000          103.33        0.00        0.00
  -0.00000000   0.00070245   0.00000000           -0.00      103.33        0.00
  -0.00000000   0.00000000   0.00027348           -0.00        0.00       40.23

     kinetic stress (kbar)  27736.02      0.00      0.00
                                0.00  27736.02      0.00
                               -0.00      0.00  27633.64

     local   stress (kbar) -12738.16     -0.00      0.00
                               -0.00 -12738.16     -0.00
                                0.00     -0.00 -11677.90

     nonloc. stress (kbar)   7199.28     -0.00      0.00
                               -0.00   7199.28      0.00
                               -0.00      0.00   7237.76

     hartree stress (kbar)   7420.41     -0.00      0.00
                               -0.00   7420.41      0.00
                                0.00      0.00   7234.13

     exc-cor stress (kbar)   1099.05      0.00     -0.00
                                0.00   1099.05      0.00
                               -0.00      0.00   1096.65

     corecor stress (kbar)  -7078.31      0.00      0.00
                                0.00  -7078.31     -0.00
                                0.00     -0.00  -7078.88

     ewald   stress (kbar) -23534.94      0.00     -0.00
                                0.00 -23534.94      0.00
                               -0.00      0.00 -24405.18

     hubbard stress (kbar)      0.00      0.00      0.00
                                0.00      0.00      0.00
                                0.00      0.00      0.00

     DFT-D   stress (kbar)      0.00      0.00      0.00
                                0.00      0.00      0.00
                                0.00      0.00      0.00

     XDM     stress (kbar)      0.00      0.00      0.00
                                0.00      0.00      0.00
                                0.00      0.00      0.00

     dft-nl  stress (kbar)      0.00      0.00      0.00
                                0.00      0.00      0.00
                                0.00      0.00      0.00

     TS-vdW  stress (kbar)      0.00      0.00      0.00
                                0.00      0.00      0.00
                                0.00      0.00      0.00

     MDB     stress (kbar)      0.00      0.00      0.00
                                0.00      0.00      0.00
                                0.00      0.00      0.00

     3D-RISM stress (kbar)      0.00      0.00      0.00
                                0.00      0.00      0.00
                                0.00      0.00      0.00

     Message from routine punch:
     Nothing written, as per user request (disk_io='none')
 
     init_run     :      0.57s CPU      0.80s WALL (       1 calls)
     electrons    :     18.86s CPU     19.26s WALL (       1 calls)
     forces       :      0.08s CPU      0.08s WALL (       1 calls)
     stress       :      0.16s CPU      0.16s WALL (       1 calls)

     Called by init_run:
     wfcinit      :      0.19s CPU      0.29s WALL (       1 calls)
     wfcinit:atom :      0.02s CPU      0.03s WALL (      32 calls)
     wfcinit:wfcr :      0.13s CPU      0.21s WALL (      32 calls)
     potinit      :      0.09s CPU      0.12s WALL (       1 calls)
     hinit0       :      0.22s CPU      0.24s WALL (       1 calls)

     Called by electrons:
     c_bands      :     14.11s CPU     14.39s WALL (      29 calls)
     sum_band     :      1.97s CPU      2.00s WALL (      29 calls)
     v_of_rho     :      0.12s CPU      0.13s WALL (      30 calls)
     v_h          :      0.05s CPU      0.05s WALL (      30 calls)
     v_xc         :      0.07s CPU      0.08s WALL (      32 calls)
     newd         :      0.28s CPU      0.31s WALL (      30 calls)
     PAW_pot      :      2.17s CPU      2.23s WALL (      30 calls)
     mix_rho      :      0.19s CPU      0.20s WALL (      29 calls)

     Called by c_bands:
     init_us_2    :      0.62s CPU      0.64s WALL (    1952 calls)
     cegterg      :     12.78s CPU     13.03s WALL (     928 calls)

     Called by sum_band:
     sum_band:wei :      0.00s CPU      0.00s WALL (      29 calls)
     sum_band:loo :      1.51s CPU      1.54s WALL (      29 calls)
     sum_band:buf :      0.25s CPU      0.26s WALL (     928 calls)
     sum_band:ini :      0.30s CPU      0.30s WALL (     928 calls)
     sum_band:cal :      0.02s CPU      0.02s WALL (     928 calls)
     sum_band:bec :      0.35s CPU      0.35s WALL (     928 calls)
     addusdens    :      0.30s CPU      0.31s WALL (      29 calls)
                                        0.31s GPU  (      29 calls)
     addusd:skk   :      0.01s CPU      0.01s WALL (      87 calls)
                                        0.01s GPU  (      87 calls)

     Called by *egterg:
     cdiaghg      :      5.54s CPU      5.68s WALL (    4875 calls)
                                        5.63s GPU  (    4875 calls)
     cegterg:over :      0.37s CPU      0.38s WALL (    3947 calls)
     cegterg:upda :      1.18s CPU      1.19s WALL (    3947 calls)
     cegterg:last :      0.16s CPU      0.16s WALL (    2712 calls)
     h_psi        :      3.65s CPU      3.89s WALL (    4907 calls)
     s_psi        :      1.26s CPU      1.27s WALL (    4907 calls)
     g_psi        :      0.08s CPU      0.08s WALL (    3947 calls)

     Called by h_psi:
     h_psi:calbec :      0.09s CPU      0.12s WALL (    4907 calls)
     vloc_psi     :      2.37s CPU      2.60s WALL (    4907 calls)
                                        2.56s GPU  (    4907 calls)
     add_vuspsi   :      1.05s CPU      1.07s WALL (    4907 calls)

     General routines
     calbec       :      0.11s CPU      0.14s WALL (    6379 calls)
     fft          :      0.04s CPU      0.07s WALL (     413 calls)
                                        0.03s GPU  (     383 calls)
     ffts         :      0.02s CPU      0.02s WALL (      59 calls)
                                        0.00s GPU  (      29 calls)
     fftw         :      0.17s CPU      1.59s WALL (   22526 calls)
                                        1.37s GPU  (   22526 calls)
     interpolate  :      0.08s CPU      0.09s WALL (      30 calls)
 
     Parallel routines

     PAW routines
     PAW_pot      :      2.17s CPU      2.23s WALL (      30 calls)
     PAW_symme    :      0.00s CPU      0.00s WALL (      59 calls)
 
     PWSCF        :     20.01s CPU     20.66s WALL

 
   This run was terminated on:  17: 5:57  29Nov2025            

=------------------------------------------------------------------------------=
   JOB DONE.
=------------------------------------------------------------------------------=
