
     Program PWSCF v.7.5 starts on 29Nov2025 at 17: 5:57 

     This program is part of the open-source Quantum ESPRESSO suite
     for quantum simulation of materials; please cite
         "P. Giannozzi et al., J. Phys.:Condens. Matter 21 395502 (2009);
         "P. Giannozzi et al., J. Phys.:Condens. Matter 29 465901 (2017);
         "P. Giannozzi et al., J. Chem. Phys. 152 154105 (2020);
          URL http://www.quantum-espresso.org", 
     in publications or presentations arising from this work. More details at
     http://www.quantum-espresso.org/quote

     Parallel version (MPI & OpenMP), running on       1 processor cores
     Number of MPI processes:                 1
     Threads/MPI process:                     1

     MPI processes distributed on     1 nodes
     1367852 MiB available memory on the printing compute node when the environment starts
 
     Reading input from espresso.pwi
Warning: card &CELL ignored
Warning: card &FCP ignored
Warning: card &RISM ignored

     Current dimensions of program PWSCF are:
     Max number of different atomic species (ntypx) = 10
     Max number of k-points (npk) =  40000
     Max angular momentum in pseudopotentials (lmaxx) =  4
     file O.pbesol-n-kjpaw_psl.0.1.UPF: wavefunction(s)  2P renormalized
     file Nb.pbesol-spn-kjpaw_psl.0.3.0.UPF: wavefunction(s)  4S 4P renormalized
     Message from routine setup:
     using ibrav=0 with symmetry is DISCOURAGED, use correct ibrav instead
 
     Subspace diagonalization in iterative solution of the eigenvalue problem:
     a serial algorithm will be used

 
     G-vector sticks info
     --------------------
     sticks:   dense  smooth     PW     G-vecs:    dense   smooth      PW
     Sum        2799    1693    487                95569    44521    7025
 
     Using Slab Decomposition
 


     bravais-lattice index     =            0
     lattice parameter (alat)  =      10.2332  a.u.
     unit-cell volume          =     708.3131 (a.u.)^3
     number of atoms/cell      =           10
     number of atomic types    =            3
     number of electrons       =        68.00
     number of Kohn-Sham states=           34
     kinetic-energy cutoff     =      60.0000  Ry
     charge density cutoff     =     400.0000  Ry
     scf convergence threshold =      1.0E-12
     mixing beta               =       0.7000
     number of iterations used =            8  plain     mixing
     Exchange-correlation= SLA  PW   PSX  PSC
                           (   1   4  10   8   0   0   0)

     GPU acceleration is ACTIVE.  1 visible GPUs per MPI rank


     GPU used by master process:

        Device Number: 0
        Device name: NVIDIA B200
        Compute capability : 100
        Ratio of single to double precision performance  : 16
        Memory Clock Rate (KHz): 3996000
        Memory Bus Width (bits): 7680
        Peak Memory Bandwidth (GB/s): ******

     celldm(1)=  10.233188  celldm(2)=   0.000000  celldm(3)=   0.000000
     celldm(4)=   0.000000  celldm(5)=   0.000000  celldm(6)=   0.000000

     crystal axes: (cart. coord. in units of alat)
               a(1) = (   0.478453   0.276235   0.833533 )  
               a(2) = (  -0.478453   0.276235   0.833533 )  
               a(3) = (   0.000000  -0.552470   0.833533 )  

     reciprocal axes: (cart. coord. in units 2 pi/alat)
               b(1) = (  1.045034  0.603351  0.399904 )  
               b(2) = ( -1.045034  0.603351  0.399904 )  
               b(3) = ( -0.000000 -1.206701  0.399904 )  


     PseudoPot. # 1 for Li read from file:
     /home/qhossain/SSSP_1.3.0_PBEsol_efficiency/li_pbesol_v1.4.uspp.F.UPF
     MD5 check sum: aa28d9aeea6a965f2dc95ee9517b3536
     Pseudo is Ultrasoft, Zval =  3.0
     Generated by new atomic code, or converted to UPF format
     Using radial grid of  751 points,  5 beta functions with: 
                l(1) =   0
                l(2) =   0
                l(3) =   0
                l(4) =   1
                l(5) =   1
     Q(r) pseudized with 10 coefficients,  rinner =    1.150   1.150   1.150


     PseudoPot. # 2 for O  read from file:
     /home/qhossain/SSSP_1.3.0_PBEsol_efficiency/O.pbesol-n-kjpaw_psl.0.1.UPF
     MD5 check sum: 81d73d1479e654e5638b0319f0d6c2c7
     Pseudo is Projector augmented-wave + core cor, Zval =  6.0
     Generated using "atomic" code by A. Dal Corso  v.6.0 svn rev. 13079
     Shape of augmentation charge: BESSEL
     Using radial grid of 1095 points,  4 beta functions with: 
                l(1) =   0
                l(2) =   0
                l(3) =   1
                l(4) =   1
     Q(r) pseudized with 0 coefficients 


     PseudoPot. # 3 for Nb read from file:
     /home/qhossain/SSSP_1.3.0_PBEsol_efficiency/Nb.pbesol-spn-kjpaw_psl.0.3.0.UPF
     MD5 check sum: 3501bca1474143575298708b2d32ca28
     Pseudo is Projector augmented-wave + core cor, Zval = 13.0
     Generated using "atomic" code by A. Dal Corso  v.6.0 svn rev. 13079
     Shape of augmentation charge: PSQ
     Using radial grid of 1227 points,  6 beta functions with: 
                l(1) =   0
                l(2) =   0
                l(3) =   1
                l(4) =   1
                l(5) =   2
                l(6) =   2
     Q(r) pseudized with 0 coefficients 


     atomic species   valence    mass     pseudopotential
     Li                3.00     6.94000     Li( 1.00)
     O                 6.00    15.99900     O ( 1.00)
     Nb               13.00    92.90637     Nb( 1.00)

      6 Sym. Ops. (no inversion) found ( 3 have fractional translation)


                                    s                        frac. trans.

      isym =  1     identity                                     

 cryst.   s( 1) = (     1          0          0      )
                  (     0          1          0      )
                  (     0          0          1      )

 cart.    s( 1) = (  1.0000000  0.0000000  0.0000000 )
                  (  0.0000000  1.0000000  0.0000000 )
                  (  0.0000000 -0.0000000  1.0000000 )


      isym =  2     120 deg rotation - cryst. axis [0,0,1]       

 cryst.   s( 2) = (     0          1          0      )
                  (     0          0          1      )
                  (     1          0          0      )

 cart.    s( 2) = ( -0.5000000 -0.8660254 -0.0000000 )
                  (  0.8660254 -0.5000000 -0.0000000 )
                  (  0.0000000  0.0000000  1.0000000 )


      isym =  3     120 deg rotation - cryst. axis [0,0,-1]      

 cryst.   s( 3) = (     0          0          1      )
                  (     1          0          0      )
                  (     0          1          0      )

 cart.    s( 3) = ( -0.5000000  0.8660254  0.0000000 )
                  ( -0.8660254 -0.5000000 -0.0000000 )
                  ( -0.0000000  0.0000000  1.0000000 )


      isym =  4     inv. 180 deg rotation - cart. axis [1,0,0]   

 cryst.   s( 4) = (     0          1          0      )    f =(  0.5000000 )
                  (     1          0          0      )       (  0.5000000 )
                  (     0          0          1      )       (  0.5000000 )

 cart.    s( 4) = ( -1.0000000  0.0000000  0.0000000 )    f =( -0.0000000 )
                  (  0.0000000  1.0000000  0.0000000 )       ( -0.0000000 )
                  ( -0.0000000 -0.0000000  1.0000000 )       (  1.2502988 )


      isym =  5     inv. 180 deg rotation - cryst. axis [0,1,0]  

 cryst.   s( 5) = (     1          0          0      )    f =(  0.5000000 )
                  (     0          0          1      )       (  0.5000000 )
                  (     0          1          0      )       (  0.5000000 )

 cart.    s( 5) = (  0.5000000  0.8660254  0.0000000 )    f =(  0.0000000 )
                  (  0.8660254 -0.5000000 -0.0000000 )       ( -0.0000000 )
                  (  0.0000000  0.0000000  1.0000000 )       (  1.2502988 )


      isym =  6     inv. 180 deg rotation - cryst. axis [1,1,0]  

 cryst.   s( 6) = (     0          0          1      )    f =(  0.5000000 )
                  (     0          1          0      )       (  0.5000000 )
                  (     1          0          0      )       (  0.5000000 )

 cart.    s( 6) = (  0.5000000 -0.8660254 -0.0000000 )    f =( -0.0000000 )
                  ( -0.8660254 -0.5000000 -0.0000000 )       ( -0.0000000 )
                  ( -0.0000000  0.0000000  1.0000000 )       (  1.2502988 )


   Cartesian axes

     site n.     atom                  positions (alat units)
         1        Li     tau(   1) = (   0.0000000  -0.0000000   1.9590405  )
         2        Li     tau(   2) = (  -0.0000000  -0.0000000   0.7087417  )
         3        O      tau(   3) = (  -0.3066795  -0.0391135   1.4155983  )
         4        O      tau(   4) = (   0.1872131  -0.2460355   1.4155983  )
         5        O      tau(   5) = (   0.1194665   0.2851490   1.4155983  )
         6        O      tau(   6) = (   0.2912403   0.0301997   0.9988321  )
         7        O      tau(   7) = (  -0.1717739   0.2371217   0.9988321  )
         8        O      tau(   8) = (  -0.1194665  -0.2673214   0.9988321  )
         9        Nb     tau(   9) = (  -0.0000000  -0.0000000   1.2529897  )
        10        Nb     tau(  10) = (  -0.0000000  -0.0000000   0.0026910  )

   Crystallographic axes

     site n.     atom                  positions (cryst. coord.)
         1        Li     tau(   1) = (  0.7834289  0.7834289  0.7834289  )
         2        Li     tau(   2) = (  0.2834289  0.2834289  0.2834289  )
         3        O      tau(   3) = (  0.2220144  0.8629954  0.6133023  )
         4        O      tau(   4) = (  0.6133023  0.2220144  0.8629954  )
         5        O      tau(   5) = (  0.8629954  0.6133023  0.2220144  )
         6        O      tau(   6) = (  0.7220144  0.1133023  0.3629954  )
         7        O      tau(   7) = (  0.3629954  0.7220144  0.1133023  )
         8        O      tau(   8) = (  0.1133023  0.3629954  0.7220144  )
         9        Nb     tau(   9) = (  0.5010761  0.5010761  0.5010761  )
        10        Nb     tau(  10) = (  0.0010761  0.0010761  0.0010761  )

     number of k points=    32
                       cart. coord. in units 2pi/alat
        k(    1) = (   0.0000000   0.0000000   0.0000000), wk =   0.0092593
        k(    2) = (  -0.0000000  -0.2011169   0.0666507), wk =   0.0555556
        k(    3) = (  -0.0000000  -0.4022337   0.1333015), wk =   0.0555556
        k(    4) = (   0.0000000   0.6033506  -0.1999522), wk =   0.0277778
        k(    5) = (  -0.1741723  -0.1005584   0.1333015), wk =   0.0555556
        k(    6) = (  -0.1741723  -0.3016753   0.1999522), wk =   0.1111111
        k(    7) = (  -0.1741723   0.7039090  -0.1333015), wk =   0.1111111
        k(    8) = (  -0.1741723   0.5027921  -0.0666507), wk =   0.1111111
        k(    9) = (  -0.1741723   0.3016753   0.0000000), wk =   0.0555556
        k(   10) = (  -0.3483446  -0.2011169   0.2666029), wk =   0.0555556
        k(   11) = (  -0.3483446   0.8044674  -0.0666507), wk =   0.1111111
        k(   12) = (  -0.3483446   0.6033506   0.0000000), wk =   0.0555556
        k(   13) = (   0.5225169   0.3016753  -0.3999044), wk =   0.0277778
        k(   14) = (  -0.0000000   0.0000000   0.1999522), wk =   0.0185185
        k(   15) = (  -0.0000000  -0.2011169   0.2666029), wk =   0.0555556
        k(   16) = (   0.0000000   0.8044674  -0.0666507), wk =   0.0555556
        k(   17) = (   0.0000000   0.6033506   0.0000000), wk =   0.0555556
        k(   18) = (   0.0000000   0.4022337   0.0666507), wk =   0.0555556
        k(   19) = (  -0.1741723  -0.1005584   0.3332537), wk =   0.0555556
        k(   20) = (  -0.1741723   0.9050259   0.0000000), wk =   0.1111111
        k(   21) = (  -0.1741723   0.7039090   0.0666507), wk =   0.1111111
        k(   22) = (  -0.1741723   0.5027921   0.1333015), wk =   0.1111111
        k(   23) = (   0.6966892   0.4022337  -0.3332537), wk =   0.0555556
        k(   24) = (   0.6966892   0.2011169  -0.2666029), wk =   0.1111111
        k(   25) = (   0.6966892  -0.0000000  -0.1999522), wk =   0.0555556
        k(   26) = (   0.5225169   0.3016753  -0.1999522), wk =   0.0555556
        k(   27) = (  -0.0000000   0.0000000   0.3999044), wk =   0.0185185
        k(   28) = (   0.0000000   1.0055843   0.0666507), wk =   0.0555556
        k(   29) = (   0.0000000   0.8044674   0.1333015), wk =   0.0555556
        k(   30) = (   0.8708615   0.5027921  -0.2666029), wk =   0.0555556
        k(   31) = (   0.8708615   0.3016753  -0.1999522), wk =   0.0555556
        k(   32) = (   0.0000000   0.0000000  -0.5998566), wk =   0.0092593

                       cryst. coord.
        k(    1) = (   0.0000000   0.0000000   0.0000000), wk =   0.0092593
        k(    2) = (  -0.0000000  -0.0000000   0.1666667), wk =   0.0555556
        k(    3) = (  -0.0000000  -0.0000000   0.3333333), wk =   0.0555556
        k(    4) = (   0.0000000   0.0000000  -0.5000000), wk =   0.0277778
        k(    5) = (   0.0000000   0.1666667   0.1666667), wk =   0.0555556
        k(    6) = (  -0.0000000   0.1666667   0.3333333), wk =   0.1111111
        k(    7) = (   0.0000000   0.1666667  -0.5000000), wk =   0.1111111
        k(    8) = (   0.0000000   0.1666667  -0.3333333), wk =   0.1111111
        k(    9) = (   0.0000000   0.1666667  -0.1666667), wk =   0.0555556
        k(   10) = (   0.0000000   0.3333333   0.3333333), wk =   0.0555556
        k(   11) = (   0.0000000   0.3333333  -0.5000000), wk =   0.1111111
        k(   12) = (   0.0000000   0.3333333  -0.3333333), wk =   0.0555556
        k(   13) = (  -0.0000000  -0.5000000  -0.5000000), wk =   0.0277778
        k(   14) = (   0.1666667   0.1666667   0.1666667), wk =   0.0185185
        k(   15) = (   0.1666667   0.1666667   0.3333333), wk =   0.0555556
        k(   16) = (   0.1666667   0.1666667  -0.5000000), wk =   0.0555556
        k(   17) = (   0.1666667   0.1666667  -0.3333333), wk =   0.0555556
        k(   18) = (   0.1666667   0.1666667  -0.1666667), wk =   0.0555556
        k(   19) = (   0.1666667   0.3333333   0.3333333), wk =   0.0555556
        k(   20) = (   0.1666667   0.3333333  -0.5000000), wk =   0.1111111
        k(   21) = (   0.1666667   0.3333333  -0.3333333), wk =   0.1111111
        k(   22) = (   0.1666667   0.3333333  -0.1666667), wk =   0.1111111
        k(   23) = (   0.1666667  -0.5000000  -0.5000000), wk =   0.0555556
        k(   24) = (   0.1666667  -0.5000000  -0.3333333), wk =   0.1111111
        k(   25) = (   0.1666667  -0.5000000  -0.1666667), wk =   0.0555556
        k(   26) = (   0.1666667  -0.3333333  -0.3333333), wk =   0.0555556
        k(   27) = (   0.3333333   0.3333333   0.3333333), wk =   0.0185185
        k(   28) = (   0.3333333   0.3333333  -0.5000000), wk =   0.0555556
        k(   29) = (   0.3333333   0.3333333  -0.3333333), wk =   0.0555556
        k(   30) = (   0.3333333  -0.5000000  -0.5000000), wk =   0.0555556
        k(   31) = (   0.3333333  -0.5000000  -0.3333333), wk =   0.0555556
        k(   32) = (  -0.5000000  -0.5000000  -0.5000000), wk =   0.0092593

     Dense  grid:    95569 G-vectors     FFT dimensions: (  72,  72,  72)

     Smooth grid:    44521 G-vectors     FFT dimensions: (  54,  54,  54)

     Dynamical RAM for                 wfc:       2.88 MB

     Dynamical RAM for     wfc (w. buffer):      95.17 MB

     Dynamical RAM for           str. fact:       4.37 MB

     Dynamical RAM for           local pot:       0.00 MB

     Dynamical RAM for          nlocal pot:       8.65 MB

     Dynamical RAM for                qrad:       4.82 MB

     Dynamical RAM for          rho,v,vnew:      12.92 MB

     Dynamical RAM for               rhoin:       4.31 MB

     Dynamical RAM for            rho*nmix:      23.33 MB

     Dynamical RAM for           G-vectors:       5.81 MB

     Dynamical RAM for          h,s,v(r/c):       0.21 MB

     Dynamical RAM for          <psi|beta>:       0.05 MB

     Dynamical RAM for                 psi:       5.77 MB

     Dynamical RAM for                hpsi:       5.77 MB

     Dynamical RAM for                spsi:       5.77 MB

     Dynamical RAM for      wfcinit/wfcrot:       5.79 MB

     Dynamical RAM for           addusdens:     279.99 MB

     Dynamical RAM for          addusforce:     295.32 MB

     Dynamical RAM for         addusstress:     293.11 MB

     Estimated static dynamical RAM per process >     156.12 MB

     Estimated max dynamical RAM per process >     474.77 MB

     Check: negative core charge=   -0.000005

     Initial potential from superposition of free atoms

     starting charge      67.0945, renormalised to      68.0000
     Starting wfcs are   54 randomized atomic wfcs
     Checking if some PAW data can be deallocated... 

     total cpu time spent up to now is        1.1 secs

     per-process dynamical memory:   557.9 Mb

     Self-consistent Calculation
[tb_dev] Currently allocated     1.86E+00 Mbytes, locked:    0 /   3
[tb_pin] Currently allocated     0.00E+00 Mbytes, locked:    0 /   0

     iteration #  1     ecut=    60.00 Ry     beta= 0.70
     Davidson diagonalization with overlap

---- Real-time Memory Report at c_bands before calling an iterative solver
           986 MiB given to the printing process from OS
           544 MiB allocation reported by mallinfo(arena+hblkhd)
       1367425 MiB available memory on the node where the printing process lives
     GPU memory used/free/total (MiB): 2275 / 180366 / 182642
------------------
     ethr =  1.00E-02,  avg # of iterations =  1.2

     total cpu time spent up to now is        1.5 secs

     total energy              =    -934.48387417 Ry
     estimated scf accuracy    <       4.39300808 Ry
[tb_dev] Currently allocated     0.00E+00 Mbytes, locked:    0 /   0
[tb_pin] Currently allocated     0.00E+00 Mbytes, locked:    0 /   0

     iteration #  2     ecut=    60.00 Ry     beta= 0.70
     Davidson diagonalization with overlap

---- Real-time Memory Report at c_bands before calling an iterative solver
          1036 MiB given to the printing process from OS
           620 MiB allocation reported by mallinfo(arena+hblkhd)
       1367373 MiB available memory on the node where the printing process lives
     GPU memory used/free/total (MiB): 2275 / 180366 / 182642
------------------
     ethr =  6.46E-03,  avg # of iterations =  8.6

     total cpu time spent up to now is        2.7 secs

     total energy              =    -933.90919177 Ry
     estimated scf accuracy    <      15.35903480 Ry
[tb_dev] Currently allocated     0.00E+00 Mbytes, locked:    0 /   0
[tb_pin] Currently allocated     0.00E+00 Mbytes, locked:    0 /   0

     iteration #  3     ecut=    60.00 Ry     beta= 0.70
     Davidson diagonalization with overlap

---- Real-time Memory Report at c_bands before calling an iterative solver
          1043 MiB given to the printing process from OS
           623 MiB allocation reported by mallinfo(arena+hblkhd)
       1367991 MiB available memory on the node where the printing process lives
     GPU memory used/free/total (MiB): 2277 / 180364 / 182642
------------------
     ethr =  6.46E-03,  avg # of iterations =  5.9

     total cpu time spent up to now is        3.5 secs

     total energy              =    -936.70407459 Ry
     estimated scf accuracy    <       0.05026277 Ry
[tb_dev] Currently allocated     0.00E+00 Mbytes, locked:    0 /   0
[tb_pin] Currently allocated     0.00E+00 Mbytes, locked:    0 /   0

     iteration #  4     ecut=    60.00 Ry     beta= 0.70
     Davidson diagonalization with overlap

---- Real-time Memory Report at c_bands before calling an iterative solver
          1045 MiB given to the printing process from OS
           625 MiB allocation reported by mallinfo(arena+hblkhd)
       1368307 MiB available memory on the node where the printing process lives
     GPU memory used/free/total (MiB): 2277 / 180364 / 182642
------------------
     ethr =  7.39E-05,  avg # of iterations =  9.1

     total cpu time spent up to now is        4.6 secs

     total energy              =    -936.69431527 Ry
     estimated scf accuracy    <       0.30290015 Ry
[tb_dev] Currently allocated     0.00E+00 Mbytes, locked:    0 /   0
[tb_pin] Currently allocated     0.00E+00 Mbytes, locked:    0 /   0

     iteration #  5     ecut=    60.00 Ry     beta= 0.70
     Davidson diagonalization with overlap

---- Real-time Memory Report at c_bands before calling an iterative solver
          1048 MiB given to the printing process from OS
           626 MiB allocation reported by mallinfo(arena+hblkhd)
       1368269 MiB available memory on the node where the printing process lives
     GPU memory used/free/total (MiB): 2277 / 180364 / 182642
------------------
     ethr =  7.39E-05,  avg # of iterations =  8.7

     total cpu time spent up to now is        5.7 secs

     total energy              =    -936.79703751 Ry
     estimated scf accuracy    <       0.50202876 Ry
[tb_dev] Currently allocated     0.00E+00 Mbytes, locked:    0 /   0
[tb_pin] Currently allocated     0.00E+00 Mbytes, locked:    0 /   0

     iteration #  6     ecut=    60.00 Ry     beta= 0.70
     Davidson diagonalization with overlap

---- Real-time Memory Report at c_bands before calling an iterative solver
          1050 MiB given to the printing process from OS
           627 MiB allocation reported by mallinfo(arena+hblkhd)
       1368174 MiB available memory on the node where the printing process lives
     GPU memory used/free/total (MiB): 2277 / 180364 / 182642
------------------
     ethr =  7.39E-05,  avg # of iterations =  6.2

     total cpu time spent up to now is        6.5 secs

     total energy              =    -936.82322478 Ry
     estimated scf accuracy    <       0.04839488 Ry
[tb_dev] Currently allocated     0.00E+00 Mbytes, locked:    0 /   0
[tb_pin] Currently allocated     0.00E+00 Mbytes, locked:    0 /   0

     iteration #  7     ecut=    60.00 Ry     beta= 0.70
     Davidson diagonalization with overlap

---- Real-time Memory Report at c_bands before calling an iterative solver
          1052 MiB given to the printing process from OS
           629 MiB allocation reported by mallinfo(arena+hblkhd)
       1368212 MiB available memory on the node where the printing process lives
     GPU memory used/free/total (MiB): 2277 / 180364 / 182642
------------------
     ethr =  7.12E-05,  avg # of iterations =  4.9

     total cpu time spent up to now is        7.2 secs

     total energy              =    -936.83664310 Ry
     estimated scf accuracy    <       0.00010030 Ry
[tb_dev] Currently allocated     0.00E+00 Mbytes, locked:    0 /   0
[tb_pin] Currently allocated     0.00E+00 Mbytes, locked:    0 /   0

     iteration #  8     ecut=    60.00 Ry     beta= 0.70
     Davidson diagonalization with overlap

---- Real-time Memory Report at c_bands before calling an iterative solver
          1053 MiB given to the printing process from OS
           630 MiB allocation reported by mallinfo(arena+hblkhd)
       1368225 MiB available memory on the node where the printing process lives
     GPU memory used/free/total (MiB): 2277 / 180364 / 182642
------------------
     ethr =  1.47E-07,  avg # of iterations = 13.1

     total cpu time spent up to now is        8.7 secs

     total energy              =    -936.83696855 Ry
     estimated scf accuracy    <       0.00591447 Ry
[tb_dev] Currently allocated     0.00E+00 Mbytes, locked:    0 /   0
[tb_pin] Currently allocated     0.00E+00 Mbytes, locked:    0 /   0

     iteration #  9     ecut=    60.00 Ry     beta= 0.70
     Davidson diagonalization with overlap

---- Real-time Memory Report at c_bands before calling an iterative solver
          1056 MiB given to the printing process from OS
           633 MiB allocation reported by mallinfo(arena+hblkhd)
       1368245 MiB available memory on the node where the printing process lives
     GPU memory used/free/total (MiB): 2277 / 180364 / 182642
------------------
     ethr =  1.47E-07,  avg # of iterations =  8.2

     total cpu time spent up to now is        9.8 secs

     total energy              =    -936.83706594 Ry
     estimated scf accuracy    <       0.00069081 Ry
[tb_dev] Currently allocated     0.00E+00 Mbytes, locked:    0 /   0
[tb_pin] Currently allocated     0.00E+00 Mbytes, locked:    0 /   0

     iteration # 10     ecut=    60.00 Ry     beta= 0.70
     Davidson diagonalization with overlap

---- Real-time Memory Report at c_bands before calling an iterative solver
          1058 MiB given to the printing process from OS
           634 MiB allocation reported by mallinfo(arena+hblkhd)
       1368224 MiB available memory on the node where the printing process lives
     GPU memory used/free/total (MiB): 2277 / 180364 / 182642
------------------
     ethr =  1.47E-07,  avg # of iterations =  7.6

     total cpu time spent up to now is       10.8 secs

     total energy              =    -936.83729795 Ry
     estimated scf accuracy    <       0.00007428 Ry
[tb_dev] Currently allocated     0.00E+00 Mbytes, locked:    0 /   0
[tb_pin] Currently allocated     0.00E+00 Mbytes, locked:    0 /   0

     iteration # 11     ecut=    60.00 Ry     beta= 0.70
     Davidson diagonalization with overlap

---- Real-time Memory Report at c_bands before calling an iterative solver
          1058 MiB given to the printing process from OS
           634 MiB allocation reported by mallinfo(arena+hblkhd)
       1368175 MiB available memory on the node where the printing process lives
     GPU memory used/free/total (MiB): 2277 / 180364 / 182642
------------------
     ethr =  1.09E-07,  avg # of iterations =  1.0

     total cpu time spent up to now is       11.2 secs

     total energy              =    -936.83727394 Ry
     estimated scf accuracy    <       0.00006242 Ry
[tb_dev] Currently allocated     0.00E+00 Mbytes, locked:    0 /   0
[tb_pin] Currently allocated     0.00E+00 Mbytes, locked:    0 /   0

     iteration # 12     ecut=    60.00 Ry     beta= 0.70
     Davidson diagonalization with overlap

---- Real-time Memory Report at c_bands before calling an iterative solver
          1058 MiB given to the printing process from OS
           634 MiB allocation reported by mallinfo(arena+hblkhd)
       1368145 MiB available memory on the node where the printing process lives
     GPU memory used/free/total (MiB): 2277 / 180364 / 182642
------------------
     ethr =  9.18E-08,  avg # of iterations =  2.4

     total cpu time spent up to now is       11.7 secs

     total energy              =    -936.83728045 Ry
     estimated scf accuracy    <       0.00000713 Ry
[tb_dev] Currently allocated     0.00E+00 Mbytes, locked:    0 /   0
[tb_pin] Currently allocated     0.00E+00 Mbytes, locked:    0 /   0

     iteration # 13     ecut=    60.00 Ry     beta= 0.70
     Davidson diagonalization with overlap

---- Real-time Memory Report at c_bands before calling an iterative solver
          1058 MiB given to the printing process from OS
           634 MiB allocation reported by mallinfo(arena+hblkhd)
       1368074 MiB available memory on the node where the printing process lives
     GPU memory used/free/total (MiB): 2277 / 180364 / 182642
------------------
     ethr =  1.05E-08,  avg # of iterations =  5.1

     total cpu time spent up to now is       12.4 secs

     total energy              =    -936.83728281 Ry
     estimated scf accuracy    <       0.00000025 Ry
[tb_dev] Currently allocated     0.00E+00 Mbytes, locked:    0 /   0
[tb_pin] Currently allocated     0.00E+00 Mbytes, locked:    0 /   0

     iteration # 14     ecut=    60.00 Ry     beta= 0.70
     Davidson diagonalization with overlap

---- Real-time Memory Report at c_bands before calling an iterative solver
          1058 MiB given to the printing process from OS
           634 MiB allocation reported by mallinfo(arena+hblkhd)
       1368001 MiB available memory on the node where the printing process lives
     GPU memory used/free/total (MiB): 2277 / 180364 / 182642
------------------
     ethr =  3.63E-10,  avg # of iterations =  6.7

     total cpu time spent up to now is       13.3 secs

     total energy              =    -936.83728311 Ry
     estimated scf accuracy    <       0.00000014 Ry
[tb_dev] Currently allocated     0.00E+00 Mbytes, locked:    0 /   0
[tb_pin] Currently allocated     0.00E+00 Mbytes, locked:    0 /   0

     iteration # 15     ecut=    60.00 Ry     beta= 0.70
     Davidson diagonalization with overlap

---- Real-time Memory Report at c_bands before calling an iterative solver
          1058 MiB given to the printing process from OS
           634 MiB allocation reported by mallinfo(arena+hblkhd)
       1367950 MiB available memory on the node where the printing process lives
     GPU memory used/free/total (MiB): 2277 / 180364 / 182642
------------------
     ethr =  1.99E-10,  avg # of iterations =  1.2

     total cpu time spent up to now is       13.7 secs

     total energy              =    -936.83728309 Ry
     estimated scf accuracy    <       0.00000015 Ry
[tb_dev] Currently allocated     0.00E+00 Mbytes, locked:    0 /   0
[tb_pin] Currently allocated     0.00E+00 Mbytes, locked:    0 /   0

     iteration # 16     ecut=    60.00 Ry     beta= 0.70
     Davidson diagonalization with overlap

---- Real-time Memory Report at c_bands before calling an iterative solver
          1058 MiB given to the printing process from OS
           634 MiB allocation reported by mallinfo(arena+hblkhd)
       1367969 MiB available memory on the node where the printing process lives
     GPU memory used/free/total (MiB): 2277 / 180364 / 182642
------------------
     ethr =  1.99E-10,  avg # of iterations =  1.0

     total cpu time spent up to now is       14.1 secs

     total energy              =    -936.83728305 Ry
     estimated scf accuracy    <       0.00000011 Ry
[tb_dev] Currently allocated     0.00E+00 Mbytes, locked:    0 /   0
[tb_pin] Currently allocated     0.00E+00 Mbytes, locked:    0 /   0

     iteration # 17     ecut=    60.00 Ry     beta= 0.70
     Davidson diagonalization with overlap

---- Real-time Memory Report at c_bands before calling an iterative solver
          1058 MiB given to the printing process from OS
           634 MiB allocation reported by mallinfo(arena+hblkhd)
       1367997 MiB available memory on the node where the printing process lives
     GPU memory used/free/total (MiB): 2277 / 180364 / 182642
------------------
     ethr =  1.59E-10,  avg # of iterations =  2.2

     total cpu time spent up to now is       14.6 secs

     total energy              =    -936.83728306 Ry
     estimated scf accuracy    <       0.00000001 Ry
[tb_dev] Currently allocated     0.00E+00 Mbytes, locked:    0 /   0
[tb_pin] Currently allocated     0.00E+00 Mbytes, locked:    0 /   0

     iteration # 18     ecut=    60.00 Ry     beta= 0.70
     Davidson diagonalization with overlap

---- Real-time Memory Report at c_bands before calling an iterative solver
          1058 MiB given to the printing process from OS
           634 MiB allocation reported by mallinfo(arena+hblkhd)
       1368005 MiB available memory on the node where the printing process lives
     GPU memory used/free/total (MiB): 2277 / 180364 / 182642
------------------
     ethr =  2.14E-11,  avg # of iterations =  5.0

     total cpu time spent up to now is       15.3 secs

     total energy              =    -936.83728307 Ry
     estimated scf accuracy    <          3.8E-10 Ry
[tb_dev] Currently allocated     0.00E+00 Mbytes, locked:    0 /   0
[tb_pin] Currently allocated     0.00E+00 Mbytes, locked:    0 /   0

     iteration # 19     ecut=    60.00 Ry     beta= 0.70
     Davidson diagonalization with overlap

---- Real-time Memory Report at c_bands before calling an iterative solver
          1058 MiB given to the printing process from OS
           634 MiB allocation reported by mallinfo(arena+hblkhd)
       1368038 MiB available memory on the node where the printing process lives
     GPU memory used/free/total (MiB): 2277 / 180364 / 182642
------------------
     ethr =  5.58E-13,  avg # of iterations =  7.4

     total cpu time spent up to now is       16.3 secs

     total energy              =    -936.83728307 Ry
     estimated scf accuracy    <          3.1E-10 Ry
[tb_dev] Currently allocated     0.00E+00 Mbytes, locked:    0 /   0
[tb_pin] Currently allocated     0.00E+00 Mbytes, locked:    0 /   0

     iteration # 20     ecut=    60.00 Ry     beta= 0.70
     Davidson diagonalization with overlap

---- Real-time Memory Report at c_bands before calling an iterative solver
          1058 MiB given to the printing process from OS
           634 MiB allocation reported by mallinfo(arena+hblkhd)
       1367993 MiB available memory on the node where the printing process lives
     GPU memory used/free/total (MiB): 2277 / 180364 / 182642
------------------
     ethr =  4.52E-13,  avg # of iterations =  6.0

     total cpu time spent up to now is       17.1 secs

     total energy              =    -936.83728307 Ry
     estimated scf accuracy    <          8.2E-10 Ry
[tb_dev] Currently allocated     0.00E+00 Mbytes, locked:    0 /   0
[tb_pin] Currently allocated     0.00E+00 Mbytes, locked:    0 /   0

     iteration # 21     ecut=    60.00 Ry     beta= 0.70
     Davidson diagonalization with overlap

---- Real-time Memory Report at c_bands before calling an iterative solver
          1058 MiB given to the printing process from OS
           634 MiB allocation reported by mallinfo(arena+hblkhd)
       1368041 MiB available memory on the node where the printing process lives
     GPU memory used/free/total (MiB): 2277 / 180364 / 182642
------------------
     ethr =  4.52E-13,  avg # of iterations =  1.0

     total cpu time spent up to now is       17.5 secs

     total energy              =    -936.83728307 Ry
     estimated scf accuracy    <          8.6E-10 Ry
[tb_dev] Currently allocated     0.00E+00 Mbytes, locked:    0 /   0
[tb_pin] Currently allocated     0.00E+00 Mbytes, locked:    0 /   0

     iteration # 22     ecut=    60.00 Ry     beta= 0.70
     Davidson diagonalization with overlap

---- Real-time Memory Report at c_bands before calling an iterative solver
          1058 MiB given to the printing process from OS
           634 MiB allocation reported by mallinfo(arena+hblkhd)
       1368041 MiB available memory on the node where the printing process lives
     GPU memory used/free/total (MiB): 2277 / 180364 / 182642
------------------
     ethr =  4.52E-13,  avg # of iterations =  2.0

     total cpu time spent up to now is       17.9 secs

     total energy              =    -936.83728307 Ry
     estimated scf accuracy    <          3.5E-10 Ry
[tb_dev] Currently allocated     0.00E+00 Mbytes, locked:    0 /   0
[tb_pin] Currently allocated     0.00E+00 Mbytes, locked:    0 /   0

     iteration # 23     ecut=    60.00 Ry     beta= 0.70
     Davidson diagonalization with overlap

---- Real-time Memory Report at c_bands before calling an iterative solver
          1058 MiB given to the printing process from OS
           634 MiB allocation reported by mallinfo(arena+hblkhd)
       1368072 MiB available memory on the node where the printing process lives
     GPU memory used/free/total (MiB): 2277 / 180364 / 182642
------------------
     ethr =  4.52E-13,  avg # of iterations =  1.4

     total cpu time spent up to now is       18.4 secs

     total energy              =    -936.83728307 Ry
     estimated scf accuracy    <          2.0E-10 Ry
[tb_dev] Currently allocated     0.00E+00 Mbytes, locked:    0 /   0
[tb_pin] Currently allocated     0.00E+00 Mbytes, locked:    0 /   0

     iteration # 24     ecut=    60.00 Ry     beta= 0.70
     Davidson diagonalization with overlap

---- Real-time Memory Report at c_bands before calling an iterative solver
          1058 MiB given to the printing process from OS
           634 MiB allocation reported by mallinfo(arena+hblkhd)
       1368071 MiB available memory on the node where the printing process lives
     GPU memory used/free/total (MiB): 2277 / 180364 / 182642
------------------
     ethr =  3.00E-13,  avg # of iterations =  1.0

     total cpu time spent up to now is       18.8 secs

     total energy              =    -936.83728307 Ry
     estimated scf accuracy    <          2.2E-10 Ry
[tb_dev] Currently allocated     0.00E+00 Mbytes, locked:    0 /   0
[tb_pin] Currently allocated     0.00E+00 Mbytes, locked:    0 /   0

     iteration # 25     ecut=    60.00 Ry     beta= 0.70
     Davidson diagonalization with overlap

---- Real-time Memory Report at c_bands before calling an iterative solver
          1058 MiB given to the printing process from OS
           634 MiB allocation reported by mallinfo(arena+hblkhd)
       1368103 MiB available memory on the node where the printing process lives
     GPU memory used/free/total (MiB): 2277 / 180364 / 182642
------------------
     ethr =  3.00E-13,  avg # of iterations =  2.0

     total cpu time spent up to now is       19.2 secs

     total energy              =    -936.83728307 Ry
     estimated scf accuracy    <          1.1E-10 Ry
[tb_dev] Currently allocated     0.00E+00 Mbytes, locked:    0 /   0
[tb_pin] Currently allocated     0.00E+00 Mbytes, locked:    0 /   0

     iteration # 26     ecut=    60.00 Ry     beta= 0.70
     Davidson diagonalization with overlap

---- Real-time Memory Report at c_bands before calling an iterative solver
          1058 MiB given to the printing process from OS
           634 MiB allocation reported by mallinfo(arena+hblkhd)
       1368085 MiB available memory on the node where the printing process lives
     GPU memory used/free/total (MiB): 2277 / 180364 / 182642
------------------
     ethr =  1.64E-13,  avg # of iterations =  2.8

     total cpu time spent up to now is       19.8 secs

     total energy              =    -936.83728307 Ry
     estimated scf accuracy    <          7.0E-11 Ry
[tb_dev] Currently allocated     0.00E+00 Mbytes, locked:    0 /   0
[tb_pin] Currently allocated     0.00E+00 Mbytes, locked:    0 /   0

     iteration # 27     ecut=    60.00 Ry     beta= 0.70
     Davidson diagonalization with overlap

---- Real-time Memory Report at c_bands before calling an iterative solver
          1058 MiB given to the printing process from OS
           634 MiB allocation reported by mallinfo(arena+hblkhd)
       1368061 MiB available memory on the node where the printing process lives
     GPU memory used/free/total (MiB): 2277 / 180364 / 182642
------------------
     ethr =  1.03E-13,  avg # of iterations =  4.7

     total cpu time spent up to now is       20.5 secs

     End of self-consistent calculation

          k = 0.0000 0.0000 0.0000 (  5541 PWs)   bands (ev):

   -46.6987 -46.6819 -34.5175 -34.5143 -23.0647 -23.0647 -22.9941 -22.8894
   -22.8894 -22.8013  -9.5999  -8.9256  -8.9256  -7.8838  -7.7290  -7.7290
     2.8094   2.8094   2.9975   3.0337   3.0337   4.0278   5.2259   5.2259
     5.2468   6.0287   6.6114   6.6114   6.7040   6.7040   6.8141   6.9025
     7.3174   7.3174

     occupation numbers 
     1.0000   1.0000   1.0000   1.0000   1.0000   1.0000   1.0000   1.0000
     1.0000   1.0000   1.0000   1.0000   1.0000   1.0000   1.0000   1.0000
     1.0000   1.0000   1.0000   1.0000   1.0000   1.0000   1.0000   1.0000
     1.0000   1.0000   1.0000   1.0000   1.0000   1.0000   1.0000   1.0000
     1.0000   1.0000

          k =-0.0000-0.2011 0.0667 (  5572 PWs)   bands (ev):

   -46.6976 -46.6830 -34.5173 -34.5146 -23.0550 -23.0536 -22.9809 -22.9029
   -22.9018 -22.8141  -9.4865  -8.8608  -8.8563  -7.9706  -7.8431  -7.8220
     2.7525   2.8405   3.1334   3.3181   3.3278   4.0770   4.8905   5.0031
     5.0446   6.0212   6.3337   6.5808   6.5812   6.8568   6.9044   7.0003
     7.1902   7.2620

     occupation numbers 
     1.0000   1.0000   1.0000   1.0000   1.0000   1.0000   1.0000   1.0000
     1.0000   1.0000   1.0000   1.0000   1.0000   1.0000   1.0000   1.0000
     1.0000   1.0000   1.0000   1.0000   1.0000   1.0000   1.0000   1.0000
     1.0000   1.0000   1.0000   1.0000   1.0000   1.0000   1.0000   1.0000
     1.0000   1.0000

          k =-0.0000-0.4022 0.1333 (  5580 PWs)   bands (ev):

   -46.6945 -46.6861 -34.5168 -34.5152 -23.0266 -23.0227 -22.9454 -22.9386
   -22.9350 -22.8492  -9.1731  -8.6871  -8.6652  -8.2457  -8.1004  -8.0598
     2.9145   3.0609   3.4301   3.8632   3.8901   4.1744   4.1968   4.6007
     4.7870   5.5583   5.8172   6.1375   6.7588   6.9329   6.9332   7.0376
     7.1588   7.2815

     occupation numbers 
     1.0000   1.0000   1.0000   1.0000   1.0000   1.0000   1.0000   1.0000
     1.0000   1.0000   1.0000   1.0000   1.0000   1.0000   1.0000   1.0000
     1.0000   1.0000   1.0000   1.0000   1.0000   1.0000   1.0000   1.0000
     1.0000   1.0000   1.0000   1.0000   1.0000   1.0000   1.0000   1.0000
     1.0000   1.0000

          k = 0.0000 0.6034-0.2000 (  5564 PWs)   bands (ev):

   -46.6903 -46.6903 -34.5160 -34.5160 -22.9845 -22.9845 -22.9795 -22.9795
   -22.8972 -22.8972  -8.7507  -8.7507  -8.4182  -8.4182  -8.3197  -8.3197
     3.2885   3.2885   3.5466   3.5466   4.0869   4.0869   4.5591   4.5591
     5.0004   5.0004   5.4535   5.4535   6.9686   6.9686   7.0713   7.0713
     7.1528   7.1528

     occupation numbers 
     1.0000   1.0000   1.0000   1.0000   1.0000   1.0000   1.0000   1.0000
     1.0000   1.0000   1.0000   1.0000   1.0000   1.0000   1.0000   1.0000
     1.0000   1.0000   1.0000   1.0000   1.0000   1.0000   1.0000   1.0000
     1.0000   1.0000   1.0000   1.0000   1.0000   1.0000   1.0000   1.0000
     1.0000   1.0000

          k =-0.1742-0.1006 0.1333 (  5558 PWs)   bands (ev):

   -46.6973 -46.6833 -34.5172 -34.5146 -23.0677 -23.0442 -22.9689 -22.9290
   -22.8872 -22.8116  -9.4775  -8.9032  -8.7566  -8.1059  -7.8308  -7.7695
     2.7950   2.8518   3.0223   3.3334   3.4577   4.2295   4.5002   5.1879
     5.2284   6.0205   6.2478   6.4535   6.6441   6.6840   6.8120   6.9784
     7.2236   7.2696

     occupation numbers 
     1.0000   1.0000   1.0000   1.0000   1.0000   1.0000   1.0000   1.0000
     1.0000   1.0000   1.0000   1.0000   1.0000   1.0000   1.0000   1.0000
     1.0000   1.0000   1.0000   1.0000   1.0000   1.0000   1.0000   1.0000
     1.0000   1.0000   1.0000   1.0000   1.0000   1.0000   1.0000   1.0000
     1.0000   1.0000

          k =-0.1742-0.3017 0.2000 (  5560 PWs)   bands (ev):

   -46.6951 -46.6854 -34.5169 -34.5150 -23.0597 -23.0265 -22.9743 -22.9282
   -22.8987 -22.8273  -9.2935  -8.8180  -8.5508  -8.3823  -7.9449  -7.9030
     2.7350   3.0056   3.3791   3.6023   3.7693   4.0004   4.5502   4.7795
     5.1456   5.7055   6.0467   6.3754   6.4975   6.6497   6.8065   7.0214
     7.1212   7.2689

     occupation numbers 
     1.0000   1.0000   1.0000   1.0000   1.0000   1.0000   1.0000   1.0000
     1.0000   1.0000   1.0000   1.0000   1.0000   1.0000   1.0000   1.0000
     1.0000   1.0000   1.0000   1.0000   1.0000   1.0000   1.0000   1.0000
     1.0000   1.0000   1.0000   1.0000   1.0000   1.0000   1.0000   1.0000
     1.0000   1.0000

          k =-0.1742 0.7039-0.1333 (  5562 PWs)   bands (ev):

   -46.6917 -46.6889 -34.5163 -34.5157 -23.0311 -23.0192 -22.9923 -22.9331
   -22.8821 -22.8626  -8.9668  -8.7645  -8.6205  -8.2300  -8.2138  -8.1419
     2.9196   3.1500   3.3918   3.8324   4.0595   4.1374   4.3955   4.6576
     4.8810   5.3238   5.7493   6.0744   6.5728   6.8129   6.8688   6.9483
     7.1345   7.2343

     occupation numbers 
     1.0000   1.0000   1.0000   1.0000   1.0000   1.0000   1.0000   1.0000
     1.0000   1.0000   1.0000   1.0000   1.0000   1.0000   1.0000   1.0000
     1.0000   1.0000   1.0000   1.0000   1.0000   1.0000   1.0000   1.0000
     1.0000   1.0000   1.0000   1.0000   1.0000   1.0000   1.0000   1.0000
     1.0000   1.0000

          k =-0.1742 0.5028-0.0667 (  5567 PWs)   bands (ev):

   -46.6927 -46.6878 -34.5165 -34.5155 -23.0501 -22.9875 -22.9789 -22.9484
   -22.9094 -22.8456  -9.0794  -8.6201  -8.5298  -8.4102  -8.3274  -7.9656
     2.8617   3.3008   3.4299   3.5626   3.7853   4.2199   4.5000   4.7098
     4.9735   5.4211   5.6661   6.3056   6.4903   6.6374   6.9217   7.0785
     7.1408   7.2618

     occupation numbers 
     1.0000   1.0000   1.0000   1.0000   1.0000   1.0000   1.0000   1.0000
     1.0000   1.0000   1.0000   1.0000   1.0000   1.0000   1.0000   1.0000
     1.0000   1.0000   1.0000   1.0000   1.0000   1.0000   1.0000   1.0000
     1.0000   1.0000   1.0000   1.0000   1.0000   1.0000   1.0000   1.0000
     1.0000   1.0000

          k =-0.1742 0.3017 0.0000 (  5562 PWs)   bands (ev):

   -46.6959 -46.6847 -34.5170 -34.5149 -23.0604 -23.0229 -22.9549 -22.9400
   -22.9108 -22.8249  -9.3366  -8.7991  -8.6916  -8.1661  -8.0637  -7.8262
     2.7710   2.9703   3.2675   3.3725   3.8690   4.1802   4.3279   4.6345
     5.2615   5.8782   6.1694   6.3814   6.6097   6.7074   6.9087   7.0336
     7.0984   7.3060

     occupation numbers 
     1.0000   1.0000   1.0000   1.0000   1.0000   1.0000   1.0000   1.0000
     1.0000   1.0000   1.0000   1.0000   1.0000   1.0000   1.0000   1.0000
     1.0000   1.0000   1.0000   1.0000   1.0000   1.0000   1.0000   1.0000
     1.0000   1.0000   1.0000   1.0000   1.0000   1.0000   1.0000   1.0000
     1.0000   1.0000

          k =-0.3483-0.2011 0.2666 (  5557 PWs)   bands (ev):

   -46.6945 -46.6861 -34.5168 -34.5152 -23.0738 -23.0358 -23.0219 -22.8850
   -22.8814 -22.8163  -9.3047  -8.8574  -8.6477  -8.3027  -7.8876  -7.8547
     2.7391   2.8725   3.1432   3.2722   3.8858   4.2064   4.8675   5.0931
     5.5094   5.7634   6.0121   6.1907   6.2882   6.5983   6.6656   6.9222
     6.9339   7.1769

     occupation numbers 
     1.0000   1.0000   1.0000   1.0000   1.0000   1.0000   1.0000   1.0000
     1.0000   1.0000   1.0000   1.0000   1.0000   1.0000   1.0000   1.0000
     1.0000   1.0000   1.0000   1.0000   1.0000   1.0000   1.0000   1.0000
     1.0000   1.0000   1.0000   1.0000   1.0000   1.0000   1.0000   1.0000
     1.0000   1.0000

          k =-0.3483 0.8045-0.0667 (  5574 PWs)   bands (ev):

   -46.6927 -46.6878 -34.5165 -34.5155 -23.0650 -23.0556 -23.0235 -22.8950
   -22.8487 -22.8289  -9.1645  -8.8690  -8.7716  -8.0854  -8.0002  -7.9661
     2.6907   2.8506   3.0629   3.4125   4.1249   4.4833   4.6710   5.1101
     5.3295   5.7219   5.9788   6.1267   6.2819   6.4554   6.6457   6.8055
     6.9765   7.2054

     occupation numbers 
     1.0000   1.0000   1.0000   1.0000   1.0000   1.0000   1.0000   1.0000
     1.0000   1.0000   1.0000   1.0000   1.0000   1.0000   1.0000   1.0000
     1.0000   1.0000   1.0000   1.0000   1.0000   1.0000   1.0000   1.0000
     1.0000   1.0000   1.0000   1.0000   1.0000   1.0000   1.0000   1.0000
     1.0000   1.0000

          k =-0.3483 0.6034 0.0000 (  5566 PWs)   bands (ev):

   -46.6903 -46.6903 -34.5160 -34.5160 -23.0656 -23.0338 -22.9899 -22.9308
   -22.8634 -22.8361  -9.0088  -8.8957  -8.5957  -8.2694  -8.1719  -7.9540
     2.7239   2.9275   3.3668   3.7156   4.0309   4.1116   4.5792   4.9891
     5.2044   5.5440   5.8676   6.0572   6.4385   6.5125   6.6842   6.9616
     7.0227   7.2453

     occupation numbers 
     1.0000   1.0000   1.0000   1.0000   1.0000   1.0000   1.0000   1.0000
     1.0000   1.0000   1.0000   1.0000   1.0000   1.0000   1.0000   1.0000
     1.0000   1.0000   1.0000   1.0000   1.0000   1.0000   1.0000   1.0000
     1.0000   1.0000   1.0000   1.0000   1.0000   1.0000   1.0000   1.0000
     1.0000   1.0000

          k = 0.5225 0.3017-0.3999 (  5594 PWs)   bands (ev):

   -46.6931 -46.6875 -34.5166 -34.5154 -23.0771 -23.0694 -23.0363 -22.8806
   -22.8352 -22.8161  -9.2384  -8.9151  -8.8221  -8.0306  -7.9122  -7.8974
     2.7053   2.7287   2.8592   3.0881   4.4536   4.7125   4.9352   5.3058
     5.4270   5.5319   5.9513   6.0524   6.2598   6.3750   6.6768   6.7497
     6.8826   7.1288

     occupation numbers 
     1.0000   1.0000   1.0000   1.0000   1.0000   1.0000   1.0000   1.0000
     1.0000   1.0000   1.0000   1.0000   1.0000   1.0000   1.0000   1.0000
     1.0000   1.0000   1.0000   1.0000   1.0000   1.0000   1.0000   1.0000
     1.0000   1.0000   1.0000   1.0000   1.0000   1.0000   1.0000   1.0000
     1.0000   1.0000

          k =-0.0000 0.0000 0.2000 (  5583 PWs)   bands (ev):

   -46.6976 -46.6831 -34.5173 -34.5146 -23.0534 -23.0534 -22.9821 -22.9016
   -22.9016 -22.8151  -9.4961  -8.8529  -8.8529  -8.0130  -7.8184  -7.8184
     2.8990   2.8990   3.1533   3.2631   3.2631   4.1222   5.0238   5.0238
     5.0287   6.1456   6.2547   6.2547   6.5178   6.6890   6.6890   6.9576
     7.3429   7.3429

     occupation numbers 
     1.0000   1.0000   1.0000   1.0000   1.0000   1.0000   1.0000   1.0000
     1.0000   1.0000   1.0000   1.0000   1.0000   1.0000   1.0000   1.0000
     1.0000   1.0000   1.0000   1.0000   1.0000   1.0000   1.0000   1.0000
     1.0000   1.0000   1.0000   1.0000   1.0000   1.0000   1.0000   1.0000
     1.0000   1.0000

          k =-0.0000-0.2011 0.2666 (  5550 PWs)   bands (ev):

   -46.6959 -46.6847 -34.5170 -34.5149 -23.0607 -23.0196 -22.9571 -22.9372
   -22.9120 -22.8258  -9.3509  -8.7849  -8.6892  -8.2215  -8.0234  -7.8320
     2.8067   3.0234   3.3489   3.5950   3.7300   4.2603   4.5354   4.6243
     5.0467   5.6407   6.0630   6.3396   6.3940   6.7197   6.8638   6.9384
     7.2213   7.2822

     occupation numbers 
     1.0000   1.0000   1.0000   1.0000   1.0000   1.0000   1.0000   1.0000
     1.0000   1.0000   1.0000   1.0000   1.0000   1.0000   1.0000   1.0000
     1.0000   1.0000   1.0000   1.0000   1.0000   1.0000   1.0000   1.0000
     1.0000   1.0000   1.0000   1.0000   1.0000   1.0000   1.0000   1.0000
     1.0000   1.0000

          k = 0.0000 0.8045-0.0667 (  5554 PWs)   bands (ev):

   -46.6927 -46.6878 -34.5164 -34.5155 -23.0512 -22.9839 -22.9749 -22.9516
   -22.9119 -22.8455  -9.0853  -8.6095  -8.5769  -8.3988  -8.2919  -7.9824
     2.8162   3.2360   3.6899   3.8199   3.9657   4.2335   4.2836   4.7020
     4.8995   5.0170   5.6984   6.2370   6.5779   6.6714   6.9380   6.9859
     7.1208   7.1727

     occupation numbers 
     1.0000   1.0000   1.0000   1.0000   1.0000   1.0000   1.0000   1.0000
     1.0000   1.0000   1.0000   1.0000   1.0000   1.0000   1.0000   1.0000
     1.0000   1.0000   1.0000   1.0000   1.0000   1.0000   1.0000   1.0000
     1.0000   1.0000   1.0000   1.0000   1.0000   1.0000   1.0000   1.0000
     1.0000   1.0000

          k = 0.0000 0.6034 0.0000 (  5561 PWs)   bands (ev):

   -46.6917 -46.6889 -34.5163 -34.5157 -23.0285 -23.0204 -22.9958 -22.9303
   -22.8814 -22.8639  -8.9698  -8.7648  -8.6125  -8.2441  -8.2119  -8.1343
     3.0591   3.2161   3.2961   3.5016   3.9388   4.2271   4.5212   4.7763
     5.0969   5.2950   5.7556   5.9303   6.5611   6.7975   6.8472   6.9994
     7.0315   7.2519

     occupation numbers 
     1.0000   1.0000   1.0000   1.0000   1.0000   1.0000   1.0000   1.0000
     1.0000   1.0000   1.0000   1.0000   1.0000   1.0000   1.0000   1.0000
     1.0000   1.0000   1.0000   1.0000   1.0000   1.0000   1.0000   1.0000
     1.0000   1.0000   1.0000   1.0000   1.0000   1.0000   1.0000   1.0000
     1.0000   1.0000

          k = 0.0000 0.4022 0.0667 (  5567 PWs)   bands (ev):

   -46.6951 -46.6854 -34.5169 -34.5150 -23.0588 -23.0283 -22.9752 -22.9276
   -22.8979 -22.8274  -9.2890  -8.8263  -8.5310  -8.3938  -7.9533  -7.8927
     2.8572   2.9920   3.0837   3.6991   3.7047   3.9263   4.5507   4.9194
     5.1446   5.9158   6.0774   6.3760   6.4911   6.6262   6.7666   7.0136
     7.1147   7.2751

     occupation numbers 
     1.0000   1.0000   1.0000   1.0000   1.0000   1.0000   1.0000   1.0000
     1.0000   1.0000   1.0000   1.0000   1.0000   1.0000   1.0000   1.0000
     1.0000   1.0000   1.0000   1.0000   1.0000   1.0000   1.0000   1.0000
     1.0000   1.0000   1.0000   1.0000   1.0000   1.0000   1.0000   1.0000
     1.0000   1.0000

          k =-0.1742-0.1006 0.3333 (  5554 PWs)   bands (ev):

   -46.6951 -46.6854 -34.5169 -34.5150 -23.0585 -23.0260 -22.9735 -22.9292
   -22.8975 -22.8286  -9.3082  -8.8077  -8.5255  -8.4239  -7.9605  -7.8850
     2.9232   3.0100   3.3950   3.6945   3.7144   4.0182   4.6054   4.9490
     5.0311   5.6733   5.8633   6.3376   6.4073   6.4828   6.5999   6.9886
     7.1487   7.2655

     occupation numbers 
     1.0000   1.0000   1.0000   1.0000   1.0000   1.0000   1.0000   1.0000
     1.0000   1.0000   1.0000   1.0000   1.0000   1.0000   1.0000   1.0000
     1.0000   1.0000   1.0000   1.0000   1.0000   1.0000   1.0000   1.0000
     1.0000   1.0000   1.0000   1.0000   1.0000   1.0000   1.0000   1.0000
     1.0000   1.0000

          k =-0.1742 0.9050 0.0000 (  5553 PWs)   bands (ev):

   -46.6931 -46.6875 -34.5165 -34.5155 -23.0642 -23.0201 -23.0011 -22.9162
   -22.8835 -22.8313  -9.1733  -8.7203  -8.6940  -8.2676  -8.1532  -7.9023
     2.7820   3.0920   3.3510   3.7912   3.8680   4.2640   4.4541   4.9138
     5.1702   5.5006   5.9178   6.0935   6.3628   6.4800   6.6811   6.8951
     7.0455   7.1677

     occupation numbers 
     1.0000   1.0000   1.0000   1.0000   1.0000   1.0000   1.0000   1.0000
     1.0000   1.0000   1.0000   1.0000   1.0000   1.0000   1.0000   1.0000
     1.0000   1.0000   1.0000   1.0000   1.0000   1.0000   1.0000   1.0000
     1.0000   1.0000   1.0000   1.0000   1.0000   1.0000   1.0000   1.0000
     1.0000   1.0000

          k =-0.1742 0.7039 0.0667 (  5563 PWs)   bands (ev):

   -46.6903 -46.6903 -34.5160 -34.5160 -23.0542 -23.0529 -22.9594 -22.9575
   -22.8479 -22.8471  -8.9739  -8.9589  -8.5084  -8.4006  -8.0385  -8.0213
     2.7974   2.9265   3.3498   3.6104   4.0702   4.4495   4.5156   4.7969
     5.1721   5.5178   6.0091   6.1388   6.2093   6.4916   6.7091   6.8578
     7.0513   7.1717

     occupation numbers 
     1.0000   1.0000   1.0000   1.0000   1.0000   1.0000   1.0000   1.0000
     1.0000   1.0000   1.0000   1.0000   1.0000   1.0000   1.0000   1.0000
     1.0000   1.0000   1.0000   1.0000   1.0000   1.0000   1.0000   1.0000
     1.0000   1.0000   1.0000   1.0000   1.0000   1.0000   1.0000   1.0000
     1.0000   1.0000

          k =-0.1742 0.5028 0.1333 (  5566 PWs)   bands (ev):

   -46.6931 -46.6875 -34.5166 -34.5154 -23.0642 -23.0214 -23.0031 -22.9161
   -22.8825 -22.8309  -9.1614  -8.7289  -8.6809  -8.2662  -8.1616  -7.8933
     2.7453   3.0929   3.2074   3.5118   3.8743   4.2806   4.4444   5.0579
     5.1736   5.7335   5.8728   6.1795   6.4638   6.6340   6.7224   6.8601
     7.0369   7.2584

     occupation numbers 
     1.0000   1.0000   1.0000   1.0000   1.0000   1.0000   1.0000   1.0000
     1.0000   1.0000   1.0000   1.0000   1.0000   1.0000   1.0000   1.0000
     1.0000   1.0000   1.0000   1.0000   1.0000   1.0000   1.0000   1.0000
     1.0000   1.0000   1.0000   1.0000   1.0000   1.0000   1.0000   1.0000
     1.0000   1.0000

          k = 0.6967 0.4022-0.3333 (  5562 PWs)   bands (ev):

   -46.6927 -46.6878 -34.5165 -34.5155 -23.0639 -23.0553 -23.0238 -22.8938
   -22.8489 -22.8298  -9.1746  -8.8747  -8.7617  -8.0893  -8.0099  -7.9588
     2.8630   2.9218   2.9742   3.3487   4.2375   4.4132   4.7702   5.0718
     5.5154   5.6108   5.9571   6.0242   6.2646   6.4300   6.5707   6.6619
     6.8352   7.1983

     occupation numbers 
     1.0000   1.0000   1.0000   1.0000   1.0000   1.0000   1.0000   1.0000
     1.0000   1.0000   1.0000   1.0000   1.0000   1.0000   1.0000   1.0000
     1.0000   1.0000   1.0000   1.0000   1.0000   1.0000   1.0000   1.0000
     1.0000   1.0000   1.0000   1.0000   1.0000   1.0000   1.0000   1.0000
     1.0000   1.0000

          k = 0.6967 0.2011-0.2666 (  5561 PWs)   bands (ev):

   -46.6917 -46.6889 -34.5163 -34.5157 -23.0682 -23.0663 -23.0015 -22.9144
   -22.8357 -22.8309  -9.1032  -8.9591  -8.6744  -8.1987  -7.9935  -7.9321
     2.7191   2.7532   3.1105   3.6201   3.9177   4.6795   4.8194   5.0117
     5.4881   5.6253   5.8450   5.9646   6.2430   6.4235   6.6735   6.7589
     6.9014   7.1922

     occupation numbers 
     1.0000   1.0000   1.0000   1.0000   1.0000   1.0000   1.0000   1.0000
     1.0000   1.0000   1.0000   1.0000   1.0000   1.0000   1.0000   1.0000
     1.0000   1.0000   1.0000   1.0000   1.0000   1.0000   1.0000   1.0000
     1.0000   1.0000   1.0000   1.0000   1.0000   1.0000   1.0000   1.0000
     1.0000   1.0000

          k = 0.6967-0.0000-0.2000 (  5554 PWs)   bands (ev):

   -46.6902 -46.6902 -34.5160 -34.5160 -23.0537 -23.0537 -22.9588 -22.9588
   -22.8472 -22.8472  -8.9632  -8.9632  -8.4594  -8.4594  -8.0251  -8.0251
     2.8162   2.8162   3.4868   3.4868   4.1972   4.1972   4.6876   4.6876
     5.3250   5.3250   6.0889   6.0889   6.4369   6.4369   6.8019   6.8019
     7.1488   7.1488

     occupation numbers 
     1.0000   1.0000   1.0000   1.0000   1.0000   1.0000   1.0000   1.0000
     1.0000   1.0000   1.0000   1.0000   1.0000   1.0000   1.0000   1.0000
     1.0000   1.0000   1.0000   1.0000   1.0000   1.0000   1.0000   1.0000
     1.0000   1.0000   1.0000   1.0000   1.0000   1.0000   1.0000   1.0000
     1.0000   1.0000

          k = 0.5225 0.3017-0.2000 (  5562 PWs)   bands (ev):

   -46.6927 -46.6878 -34.5165 -34.5155 -23.0641 -23.0559 -23.0246 -22.8940
   -22.8486 -22.8295  -9.1657  -8.8718  -8.7661  -8.0909  -7.9995  -7.9627
     2.7868   2.9218   2.9719   3.2163   4.1786   4.5049   4.7754   5.0229
     5.4719   5.5943   6.0458   6.2887   6.3291   6.4154   6.6428   6.6696
     6.8266   7.2228

     occupation numbers 
     1.0000   1.0000   1.0000   1.0000   1.0000   1.0000   1.0000   1.0000
     1.0000   1.0000   1.0000   1.0000   1.0000   1.0000   1.0000   1.0000
     1.0000   1.0000   1.0000   1.0000   1.0000   1.0000   1.0000   1.0000
     1.0000   1.0000   1.0000   1.0000   1.0000   1.0000   1.0000   1.0000
     1.0000   1.0000

          k =-0.0000 0.0000 0.3999 (  5523 PWs)   bands (ev):

   -46.6945 -46.6861 -34.5167 -34.5152 -23.0222 -23.0222 -22.9487 -22.9346
   -22.9346 -22.8523  -9.2059  -8.6497  -8.6497  -8.3531  -8.0546  -8.0546
     3.2301   3.2301   3.5456   3.8377   3.8377   4.4555   4.4638   4.4638
     4.5499   5.5137   5.5137   5.8540   6.4292   6.7671   6.7671   6.9225
     7.2449   7.2449

     occupation numbers 
     1.0000   1.0000   1.0000   1.0000   1.0000   1.0000   1.0000   1.0000
     1.0000   1.0000   1.0000   1.0000   1.0000   1.0000   1.0000   1.0000
     1.0000   1.0000   1.0000   1.0000   1.0000   1.0000   1.0000   1.0000
     1.0000   1.0000   1.0000   1.0000   1.0000   1.0000   1.0000   1.0000
     1.0000   1.0000

          k = 0.0000 1.0056 0.0667 (  5530 PWs)   bands (ev):

   -46.6927 -46.6878 -34.5164 -34.5155 -23.0494 -22.9836 -22.9745 -22.9494
   -22.9131 -22.8470  -9.1046  -8.6096  -8.5549  -8.4206  -8.3057  -7.9731
     3.0195   3.4053   3.6667   3.8921   3.9239   4.2246   4.4107   4.7363
     4.8959   4.9134   5.5691   6.0771   6.3961   6.4120   6.8991   6.9708
     7.0810   7.1278

     occupation numbers 
     1.0000   1.0000   1.0000   1.0000   1.0000   1.0000   1.0000   1.0000
     1.0000   1.0000   1.0000   1.0000   1.0000   1.0000   1.0000   1.0000
     1.0000   1.0000   1.0000   1.0000   1.0000   1.0000   1.0000   1.0000
     1.0000   1.0000   1.0000   1.0000   1.0000   1.0000   1.0000   1.0000
     1.0000   1.0000

          k = 0.0000 0.8045 0.1333 (  5559 PWs)   bands (ev):

   -46.6903 -46.6903 -34.5160 -34.5160 -23.0656 -23.0309 -22.9918 -22.9276
   -22.8657 -22.8363  -9.0155  -8.9158  -8.5833  -8.2599  -8.1751  -7.9643
     2.7664   3.2208   3.2632   3.7226   4.0548   4.0639   4.8226   4.8886
     5.2947   5.4714   5.8858   5.8879   6.1686   6.4750   6.7331   6.7495
     6.9265   7.2132

     occupation numbers 
     1.0000   1.0000   1.0000   1.0000   1.0000   1.0000   1.0000   1.0000
     1.0000   1.0000   1.0000   1.0000   1.0000   1.0000   1.0000   1.0000
     1.0000   1.0000   1.0000   1.0000   1.0000   1.0000   1.0000   1.0000
     1.0000   1.0000   1.0000   1.0000   1.0000   1.0000   1.0000   1.0000
     1.0000   1.0000

          k = 0.8709 0.5028-0.2666 (  5532 PWs)   bands (ev):

   -46.6917 -46.6889 -34.5162 -34.5157 -23.0279 -23.0180 -22.9926 -22.9298
   -22.8835 -22.8656  -8.9990  -8.7816  -8.5933  -8.2371  -8.2348  -8.1276
     3.2919   3.3527   3.4075   3.9351   4.0413   4.1868   4.3406   4.6502
     5.0180   5.1798   5.5185   5.7402   6.4784   6.5574   6.7186   6.9197
     6.9546   7.1774

     occupation numbers 
     1.0000   1.0000   1.0000   1.0000   1.0000   1.0000   1.0000   1.0000
     1.0000   1.0000   1.0000   1.0000   1.0000   1.0000   1.0000   1.0000
     1.0000   1.0000   1.0000   1.0000   1.0000   1.0000   1.0000   1.0000
     1.0000   1.0000   1.0000   1.0000   1.0000   1.0000   1.0000   1.0000
     1.0000   1.0000

          k = 0.8709 0.3017-0.2000 (  5556 PWs)   bands (ev):

   -46.6903 -46.6903 -34.5160 -34.5160 -23.0528 -23.0528 -22.9578 -22.9578
   -22.8482 -22.8482  -8.9778  -8.9778  -8.4507  -8.4507  -8.0315  -8.0315
     2.9585   2.9585   3.4902   3.4902   4.3358   4.3358   4.6027   4.6027
     5.3983   5.3983   5.9057   5.9057   6.3026   6.3026   6.6684   6.6684
     7.0886   7.0886

     occupation numbers 
     1.0000   1.0000   1.0000   1.0000   1.0000   1.0000   1.0000   1.0000
     1.0000   1.0000   1.0000   1.0000   1.0000   1.0000   1.0000   1.0000
     1.0000   1.0000   1.0000   1.0000   1.0000   1.0000   1.0000   1.0000
     1.0000   1.0000   1.0000   1.0000   1.0000   1.0000   1.0000   1.0000
     1.0000   1.0000

          k = 0.0000 0.0000-0.5999 (  5506 PWs)   bands (ev):

   -46.6903 -46.6903 -34.5160 -34.5160 -22.9789 -22.9789 -22.9789 -22.9789
   -22.9014 -22.9014  -8.7917  -8.7917  -8.3603  -8.3603  -8.3603  -8.3603
     3.7846   3.7846   3.7846   3.7846   4.0307   4.0307   4.6426   4.6426
     4.6426   4.6426   5.0780   5.0780   6.7315   6.7315   7.0065   7.0065
     7.0065   7.0065

     occupation numbers 
     1.0000   1.0000   1.0000   1.0000   1.0000   1.0000   1.0000   1.0000
     1.0000   1.0000   1.0000   1.0000   1.0000   1.0000   1.0000   1.0000
     1.0000   1.0000   1.0000   1.0000   1.0000   1.0000   1.0000   1.0000
     1.0000   1.0000   1.0000   1.0000   1.0000   1.0000   1.0000   1.0000
     1.0000   1.0000

     highest occupied level (ev):     7.3429

!    total energy              =    -936.83728307 Ry
     estimated scf accuracy    <          1.5E-13 Ry

     The total energy is the sum of the following terms:
     one-electron contribution =    -138.45749338 Ry
     hartree contribution      =     104.25293041 Ry
     xc contribution           =    -108.30127658 Ry
     ewald contribution        =    -330.87629388 Ry
     one-center paw contrib.   =    -463.45514964 Ry
      -> PAW hartree energy AE =     294.14084009 Ry
      -> PAW hartree energy PS =    -292.61810180 Ry
      -> PAW xc energy AE      =    -560.78894323 Ry
      -> PAW xc energy PS      =      95.81105530 Ry
      -> total E_H with PAW    =     105.77566871 Ry
      -> total E_XC with PAW   =    -573.27916451 Ry

     convergence has been achieved in  27 iterations

     Forces acting on atoms (cartesian axes, Ry/au):

     atom    1 type  1   force =     0.00000000   -0.00000000   -0.00189388
     atom    2 type  1   force =    -0.00000000    0.00000000   -0.00189388
     atom    3 type  2   force =     0.00103809   -0.00080694   -0.00091430
     atom    4 type  2   force =     0.00017979    0.00130248   -0.00091430
     atom    5 type  2   force =    -0.00121788   -0.00049554   -0.00091430
     atom    6 type  2   force =    -0.00017979    0.00130248   -0.00091430
     atom    7 type  2   force =    -0.00103809   -0.00080694   -0.00091430
     atom    8 type  2   force =     0.00121788   -0.00049554   -0.00091430
     atom    9 type  3   force =     0.00000000    0.00000000    0.00463679
     atom   10 type  3   force =    -0.00000000   -0.00000000    0.00463679
     The non-local contrib.  to forces
     atom    1 type  1   force =    -0.00000000   -0.00000000    0.00649383
     atom    2 type  1   force =    -0.00000000   -0.00000000    0.00649383
     atom    3 type  2   force =     0.31025241   -0.20209952   -0.03683497
     atom    4 type  2   force =     0.01989711    0.36973623   -0.03683497
     atom    5 type  2   force =    -0.33014952   -0.16763671   -0.03683497
     atom    6 type  2   force =    -0.01989711    0.36973623   -0.03683497
     atom    7 type  2   force =    -0.31025241   -0.20209952   -0.03683497
     atom    8 type  2   force =     0.33014952   -0.16763671   -0.03683497
     atom    9 type  3   force =     0.00000000   -0.00000000   -0.01567473
     atom   10 type  3   force =     0.00000000   -0.00000000   -0.01567473
     The ionic contribution  to forces
     atom    1 type  1   force =    -0.00000000   -0.00000000   -1.21049227
     atom    2 type  1   force =     0.00000000   -0.00000000   -1.21049227
     atom    3 type  2   force =    -3.59497422    2.81354001    0.31804844
     atom    4 type  2   force =    -0.63911001   -4.52010901    0.31804844
     atom    5 type  2   force =     4.23408423    1.70656900    0.31804844
     atom    6 type  2   force =     0.63911001   -4.52010901    0.31804844
     atom    7 type  2   force =     3.59497422    2.81354001    0.31804844
     atom    8 type  2   force =    -4.23408423    1.70656900    0.31804844
     atom    9 type  3   force =    -0.00000000   -0.00000000    0.25634696
     atom   10 type  3   force =     0.00000000    0.00000000    0.25634696
     The local contribution  to forces
     atom    1 type  1   force =     0.00000000   -0.00000000    1.20210459
     atom    2 type  1   force =     0.00000000    0.00000000    1.20210459
     atom    3 type  2   force =     3.28690688   -2.61395507   -0.28200056
     atom    4 type  2   force =     0.62029807    4.15352239   -0.28200056
     atom    5 type  2   force =    -3.90720494   -1.53956731   -0.28200056
     atom    6 type  2   force =    -0.62029807    4.15352239   -0.28200056
     atom    7 type  2   force =    -3.28690687   -2.61395508   -0.28200056
     atom    8 type  2   force =     3.90720494   -1.53956731   -0.28200056
     atom    9 type  3   force =     0.00000000    0.00000000   -0.23223914
     atom   10 type  3   force =     0.00000000    0.00000000   -0.23223914
     The core correction contribution to forces
     atom    1 type  1   force =     0.00000000    0.00000000    0.00000000
     atom    2 type  1   force =     0.00000000    0.00000000    0.00000000
     atom    3 type  2   force =    -0.00114688    0.00170751   -0.00012721
     atom    4 type  2   force =    -0.00090531   -0.00184699   -0.00012721
     atom    5 type  2   force =     0.00205219    0.00013947   -0.00012721
     atom    6 type  2   force =     0.00090531   -0.00184699   -0.00012721
     atom    7 type  2   force =     0.00114688    0.00170751   -0.00012721
     atom    8 type  2   force =    -0.00205219    0.00013947   -0.00012721
     atom    9 type  3   force =    -0.00000000    0.00000000   -0.00379660
     atom   10 type  3   force =    -0.00000000   -0.00000000   -0.00379660
     The Hubbard contrib.    to forces
     atom    1 type  1   force =     0.00000000    0.00000000    0.00000000
     atom    2 type  1   force =     0.00000000    0.00000000    0.00000000
     atom    3 type  2   force =     0.00000000    0.00000000    0.00000000
     atom    4 type  2   force =     0.00000000    0.00000000    0.00000000
     atom    5 type  2   force =     0.00000000    0.00000000    0.00000000
     atom    6 type  2   force =     0.00000000    0.00000000    0.00000000
     atom    7 type  2   force =     0.00000000    0.00000000    0.00000000
     atom    8 type  2   force =     0.00000000    0.00000000    0.00000000
     atom    9 type  3   force =     0.00000000    0.00000000    0.00000000
     atom   10 type  3   force =     0.00000000    0.00000000    0.00000000
     The SCF correction term to forces
     atom    1 type  1   force =     0.00000000   -0.00000000   -0.00000002
     atom    2 type  1   force =    -0.00000000   -0.00000000   -0.00000002
     atom    3 type  2   force =    -0.00000010    0.00000013    0.00000002
     atom    4 type  2   force =    -0.00000007   -0.00000015    0.00000002
     atom    5 type  2   force =     0.00000017    0.00000002    0.00000002
     atom    6 type  2   force =     0.00000007   -0.00000015    0.00000002
     atom    7 type  2   force =     0.00000010    0.00000013    0.00000002
     atom    8 type  2   force =    -0.00000017    0.00000002    0.00000002
     atom    9 type  3   force =     0.00000000   -0.00000000    0.00000033
     atom   10 type  3   force =    -0.00000000    0.00000000    0.00000033

     Total force =     0.008097     Total SCF correction =     0.000001


     Computing stress (Cartesian axis) and pressure

          total   stress  (Ry/bohr**3)                   (kbar)     P=        0.39
  -0.00010819  -0.00000000  -0.00000000          -15.91       -0.00       -0.00
   0.00000000  -0.00010819  -0.00000000            0.00      -15.91       -0.00
  -0.00000000  -0.00000000   0.00022428           -0.00       -0.00       32.99

     kinetic stress (kbar)  26774.26      0.00      0.00
                                0.00  26774.26      0.00
                               -0.00      0.00  26774.81

     local   stress (kbar) -13237.33     -0.00     -0.00
                               -0.00 -13237.33      0.00
                               -0.00      0.00 -10394.93

     nonloc. stress (kbar)   6973.64     -0.00      0.00
                               -0.00   6973.64      0.00
                                0.00      0.00   7027.71

     hartree stress (kbar)   7461.84     -0.00      0.00
                               -0.00   7461.84      0.00
                                0.00      0.00   6727.95

     exc-cor stress (kbar)   1080.95      0.00      0.00
                                0.00   1080.95     -0.00
                                0.00     -0.00   1077.01

     corecor stress (kbar)  -6866.55     -0.00     -0.00
                               -0.00  -6866.55      0.00
                               -0.00      0.00  -6867.38

     ewald   stress (kbar) -22202.72      0.00      0.00
                                0.00 -22202.72     -0.00
                                0.00     -0.00 -24312.17

     hubbard stress (kbar)      0.00      0.00      0.00
                                0.00      0.00      0.00
                                0.00      0.00      0.00

     DFT-D   stress (kbar)      0.00      0.00      0.00
                                0.00      0.00      0.00
                                0.00      0.00      0.00

     XDM     stress (kbar)      0.00      0.00      0.00
                                0.00      0.00      0.00
                                0.00      0.00      0.00

     dft-nl  stress (kbar)      0.00      0.00      0.00
                                0.00      0.00      0.00
                                0.00      0.00      0.00

     TS-vdW  stress (kbar)      0.00      0.00      0.00
                                0.00      0.00      0.00
                                0.00      0.00      0.00

     MDB     stress (kbar)      0.00      0.00      0.00
                                0.00      0.00      0.00
                                0.00      0.00      0.00

     3D-RISM stress (kbar)      0.00      0.00      0.00
                                0.00      0.00      0.00
                                0.00      0.00      0.00

     Message from routine punch:
     Nothing written, as per user request (disk_io='none')
 
     init_run     :      0.55s CPU      0.74s WALL (       1 calls)
     electrons    :     18.94s CPU     19.37s WALL (       1 calls)
     forces       :      0.08s CPU      0.08s WALL (       1 calls)
     stress       :      0.16s CPU      0.17s WALL (       1 calls)

     Called by init_run:
     wfcinit      :      0.17s CPU      0.27s WALL (       1 calls)
     wfcinit:atom :      0.02s CPU      0.03s WALL (      32 calls)
     wfcinit:wfcr :      0.12s CPU      0.19s WALL (      32 calls)
     potinit      :      0.10s CPU      0.11s WALL (       1 calls)
     hinit0       :      0.20s CPU      0.22s WALL (       1 calls)

     Called by electrons:
     c_bands      :     14.45s CPU     14.77s WALL (      27 calls)
     sum_band     :      1.87s CPU      1.89s WALL (      27 calls)
     v_of_rho     :      0.11s CPU      0.13s WALL (      28 calls)
     v_h          :      0.04s CPU      0.05s WALL (      28 calls)
     v_xc         :      0.07s CPU      0.08s WALL (      30 calls)
     newd         :      0.26s CPU      0.29s WALL (      28 calls)
     PAW_pot      :      2.05s CPU      2.10s WALL (      28 calls)
     mix_rho      :      0.19s CPU      0.20s WALL (      27 calls)

     Called by c_bands:
     init_us_2    :      0.59s CPU      0.60s WALL (    1824 calls)
     cegterg      :     13.19s CPU     13.48s WALL (     864 calls)

     Called by sum_band:
     sum_band:wei :      0.00s CPU      0.00s WALL (      27 calls)
     sum_band:loo :      1.43s CPU      1.45s WALL (      27 calls)
     sum_band:buf :      0.24s CPU      0.25s WALL (     864 calls)
     sum_band:ini :      0.28s CPU      0.28s WALL (     864 calls)
     sum_band:cal :      0.01s CPU      0.01s WALL (     864 calls)
     sum_band:bec :      0.33s CPU      0.33s WALL (     864 calls)
     addusdens    :      0.29s CPU      0.29s WALL (      27 calls)
                                        0.29s GPU  (      27 calls)
     addusd:skk   :      0.01s CPU      0.01s WALL (      81 calls)
                                        0.01s GPU  (      81 calls)

     Called by *egterg:
     cdiaghg      :      5.81s CPU      5.95s WALL (    4908 calls)
                                        5.90s GPU  (    4908 calls)
     cegterg:over :      0.37s CPU      0.38s WALL (    4044 calls)
     cegterg:upda :      1.24s CPU      1.25s WALL (    4044 calls)
     cegterg:last :      0.17s CPU      0.17s WALL (    2738 calls)
     h_psi        :      3.68s CPU      3.94s WALL (    4940 calls)
     s_psi        :      1.30s CPU      1.32s WALL (    4940 calls)
     g_psi        :      0.08s CPU      0.08s WALL (    4044 calls)

     Called by h_psi:
     h_psi:calbec :      0.09s CPU      0.12s WALL (    4940 calls)
     vloc_psi     :      2.35s CPU      2.62s WALL (    4940 calls)
                                        2.58s GPU  (    4940 calls)
     add_vuspsi   :      1.09s CPU      1.11s WALL (    4940 calls)

     General routines
     calbec       :      0.10s CPU      0.13s WALL (    6348 calls)
     fft          :      0.04s CPU      0.07s WALL (     387 calls)
                                        0.03s GPU  (     359 calls)
     ffts         :      0.02s CPU      0.02s WALL (      55 calls)
                                        0.00s GPU  (      27 calls)
     fftw         :      0.17s CPU      1.60s WALL (   22238 calls)
                                        1.38s GPU  (   22238 calls)
     interpolate  :      0.08s CPU      0.08s WALL (      28 calls)
 
     Parallel routines

     PAW routines
     PAW_pot      :      2.05s CPU      2.10s WALL (      28 calls)
     PAW_symme    :      0.00s CPU      0.00s WALL (      55 calls)
 
     PWSCF        :     20.06s CPU     20.73s WALL

 
   This run was terminated on:  17: 6:18  29Nov2025            

=------------------------------------------------------------------------------=
   JOB DONE.
=------------------------------------------------------------------------------=
