
     Program PWSCF v.7.5 starts on 29Nov2025 at 17: 6: 4 

     This program is part of the open-source Quantum ESPRESSO suite
     for quantum simulation of materials; please cite
         "P. Giannozzi et al., J. Phys.:Condens. Matter 21 395502 (2009);
         "P. Giannozzi et al., J. Phys.:Condens. Matter 29 465901 (2017);
         "P. Giannozzi et al., J. Chem. Phys. 152 154105 (2020);
          URL http://www.quantum-espresso.org", 
     in publications or presentations arising from this work. More details at
     http://www.quantum-espresso.org/quote

     Parallel version (MPI & OpenMP), running on       1 processor cores
     Number of MPI processes:                 1
     Threads/MPI process:                     1

     MPI processes distributed on     1 nodes
     1780252 MiB available memory on the printing compute node when the environment starts
 
     Reading input from espresso.pwi
Warning: card &CELL ignored
Warning: card &FCP ignored
Warning: card &RISM ignored

     Current dimensions of program PWSCF are:
     Max number of different atomic species (ntypx) = 10
     Max number of k-points (npk) =  40000
     Max angular momentum in pseudopotentials (lmaxx) =  4
     file O.pbesol-n-kjpaw_psl.0.1.UPF: wavefunction(s)  2P renormalized
     file Nb.pbesol-spn-kjpaw_psl.0.3.0.UPF: wavefunction(s)  4S 4P renormalized
     Message from routine setup:
     using ibrav=0 with symmetry is DISCOURAGED, use correct ibrav instead
 
     Subspace diagonalization in iterative solution of the eigenvalue problem:
     a serial algorithm will be used

 
     G-vector sticks info
     --------------------
     sticks:   dense  smooth     PW     G-vecs:    dense   smooth      PW
     Sum        2853    1717    497                97549    45409    7181
 
     Using Slab Decomposition
 


     bravais-lattice index     =            0
     lattice parameter (alat)  =      10.3787  a.u.
     unit-cell volume          =     722.7685 (a.u.)^3
     number of atoms/cell      =           10
     number of atomic types    =            3
     number of electrons       =        68.00
     number of Kohn-Sham states=           34
     kinetic-energy cutoff     =      60.0000  Ry
     charge density cutoff     =     400.0000  Ry
     scf convergence threshold =      1.0E-12
     mixing beta               =       0.7000
     number of iterations used =            8  plain     mixing
     Exchange-correlation= SLA  PW   PSX  PSC
                           (   1   4  10   8   0   0   0)

     GPU acceleration is ACTIVE.  1 visible GPUs per MPI rank


     GPU used by master process:

        Device Number: 0
        Device name: NVIDIA B200
        Compute capability : 100
        Ratio of single to double precision performance  : 16
        Memory Clock Rate (KHz): 3996000
        Memory Bus Width (bits): 7680
        Peak Memory Bandwidth (GB/s): ******

     celldm(1)=  10.378731  celldm(2)=   0.000000  celldm(3)=   0.000000
     celldm(4)=   0.000000  celldm(5)=   0.000000  celldm(6)=   0.000000

     crystal axes: (cart. coord. in units of alat)
               a(1) = (   0.471744   0.272361   0.838616 )  
               a(2) = (  -0.471744   0.272361   0.838616 )  
               a(3) = (   0.000000  -0.544723   0.838616 )  

     reciprocal axes: (cart. coord. in units 2 pi/alat)
               b(1) = (  1.059897  0.611932  0.397480 )  
               b(2) = ( -1.059897  0.611932  0.397480 )  
               b(3) = (  0.000000 -1.223864  0.397480 )  


     PseudoPot. # 1 for Li read from file:
     /home/qhossain/SSSP_1.3.0_PBEsol_efficiency/li_pbesol_v1.4.uspp.F.UPF
     MD5 check sum: aa28d9aeea6a965f2dc95ee9517b3536
     Pseudo is Ultrasoft, Zval =  3.0
     Generated by new atomic code, or converted to UPF format
     Using radial grid of  751 points,  5 beta functions with: 
                l(1) =   0
                l(2) =   0
                l(3) =   0
                l(4) =   1
                l(5) =   1
     Q(r) pseudized with 10 coefficients,  rinner =    1.150   1.150   1.150


     PseudoPot. # 2 for O  read from file:
     /home/qhossain/SSSP_1.3.0_PBEsol_efficiency/O.pbesol-n-kjpaw_psl.0.1.UPF
     MD5 check sum: 81d73d1479e654e5638b0319f0d6c2c7
     Pseudo is Projector augmented-wave + core cor, Zval =  6.0
     Generated using "atomic" code by A. Dal Corso  v.6.0 svn rev. 13079
     Shape of augmentation charge: BESSEL
     Using radial grid of 1095 points,  4 beta functions with: 
                l(1) =   0
                l(2) =   0
                l(3) =   1
                l(4) =   1
     Q(r) pseudized with 0 coefficients 


     PseudoPot. # 3 for Nb read from file:
     /home/qhossain/SSSP_1.3.0_PBEsol_efficiency/Nb.pbesol-spn-kjpaw_psl.0.3.0.UPF
     MD5 check sum: 3501bca1474143575298708b2d32ca28
     Pseudo is Projector augmented-wave + core cor, Zval = 13.0
     Generated using "atomic" code by A. Dal Corso  v.6.0 svn rev. 13079
     Shape of augmentation charge: PSQ
     Using radial grid of 1227 points,  6 beta functions with: 
                l(1) =   0
                l(2) =   0
                l(3) =   1
                l(4) =   1
                l(5) =   2
                l(6) =   2
     Q(r) pseudized with 0 coefficients 


     atomic species   valence    mass     pseudopotential
     Li                3.00     6.94000     Li( 1.00)
     O                 6.00    15.99900     O ( 1.00)
     Nb               13.00    92.90637     Nb( 1.00)

      6 Sym. Ops. (no inversion) found ( 3 have fractional translation)


                                    s                        frac. trans.

      isym =  1     identity                                     

 cryst.   s( 1) = (     1          0          0      )
                  (     0          1          0      )
                  (     0          0          1      )

 cart.    s( 1) = (  1.0000000 -0.0000000 -0.0000000 )
                  ( -0.0000000  1.0000000 -0.0000000 )
                  (  0.0000000  0.0000000  1.0000000 )


      isym =  2     120 deg rotation - cryst. axis [0,0,1]       

 cryst.   s( 2) = (     0          1          0      )
                  (     0          0          1      )
                  (     1          0          0      )

 cart.    s( 2) = ( -0.5000000 -0.8660254 -0.0000000 )
                  (  0.8660254 -0.5000000 -0.0000000 )
                  (  0.0000000 -0.0000000  1.0000000 )


      isym =  3     120 deg rotation - cryst. axis [0,0,-1]      

 cryst.   s( 3) = (     0          0          1      )
                  (     1          0          0      )
                  (     0          1          0      )

 cart.    s( 3) = ( -0.5000000  0.8660254  0.0000000 )
                  ( -0.8660254 -0.5000000 -0.0000000 )
                  ( -0.0000000  0.0000000  1.0000000 )


      isym =  4     inv. 180 deg rotation - cart. axis [1,0,0]   

 cryst.   s( 4) = (     0          1          0      )    f =(  0.5000000 )
                  (     1          0          0      )       (  0.5000000 )
                  (     0          0          1      )       (  0.5000000 )

 cart.    s( 4) = ( -1.0000000 -0.0000000 -0.0000000 )    f =( -0.0000000 )
                  (  0.0000000  1.0000000 -0.0000000 )       ( -0.0000000 )
                  ( -0.0000000  0.0000000  1.0000000 )       (  1.2579241 )


      isym =  5     inv. 180 deg rotation - cryst. axis [0,1,0]  

 cryst.   s( 5) = (     1          0          0      )    f =(  0.5000000 )
                  (     0          0          1      )       (  0.5000000 )
                  (     0          1          0      )       (  0.5000000 )

 cart.    s( 5) = (  0.5000000  0.8660254  0.0000000 )    f =(  0.0000000 )
                  (  0.8660254 -0.5000000 -0.0000000 )       ( -0.0000000 )
                  (  0.0000000  0.0000000  1.0000000 )       (  1.2579241 )


      isym =  6     inv. 180 deg rotation - cryst. axis [1,1,0]  

 cryst.   s( 6) = (     0          0          1      )    f =(  0.5000000 )
                  (     0          1          0      )       (  0.5000000 )
                  (     1          0          0      )       (  0.5000000 )

 cart.    s( 6) = (  0.5000000 -0.8660254 -0.0000000 )    f =( -0.0000000 )
                  ( -0.8660254 -0.5000000 -0.0000000 )       ( -0.0000000 )
                  ( -0.0000000 -0.0000000  1.0000000 )       (  1.2579241 )


   Cartesian axes

     site n.     atom                  positions (alat units)
         1        Li     tau(   1) = (   0.0000000  -0.0000000   1.9709882  )
         2        Li     tau(   2) = (  -0.0000000  -0.0000000   0.7130642  )
         3        O      tau(   3) = (  -0.3023789  -0.0385650   1.4242317  )
         4        O      tau(   4) = (   0.1845877  -0.2425853   1.4242317  )
         5        O      tau(   5) = (   0.1177912   0.2811503   1.4242317  )
         6        O      tau(   6) = (   0.2871562   0.0297762   1.0049237  )
         7        O      tau(   7) = (  -0.1693650   0.2337965   1.0049237  )
         8        O      tau(   8) = (  -0.1177912  -0.2635727   1.0049237  )
         9        Nb     tau(   9) = (  -0.0000000  -0.0000000   1.2606314  )
        10        Nb     tau(  10) = (  -0.0000000  -0.0000000   0.0027074  )

   Crystallographic axes

     site n.     atom                  positions (cryst. coord.)
         1        Li     tau(   1) = (  0.7834289  0.7834289  0.7834289  )
         2        Li     tau(   2) = (  0.2834289  0.2834289  0.2834289  )
         3        O      tau(   3) = (  0.2220144  0.8629954  0.6133023  )
         4        O      tau(   4) = (  0.6133023  0.2220144  0.8629954  )
         5        O      tau(   5) = (  0.8629954  0.6133023  0.2220144  )
         6        O      tau(   6) = (  0.7220144  0.1133023  0.3629954  )
         7        O      tau(   7) = (  0.3629954  0.7220144  0.1133023  )
         8        O      tau(   8) = (  0.1133023  0.3629954  0.7220144  )
         9        Nb     tau(   9) = (  0.5010761  0.5010761  0.5010761  )
        10        Nb     tau(  10) = (  0.0010761  0.0010761  0.0010761  )

     number of k points=    32
                       cart. coord. in units 2pi/alat
        k(    1) = (   0.0000000   0.0000000   0.0000000), wk =   0.0092593
        k(    2) = (   0.0000000  -0.2039773   0.0662467), wk =   0.0555556
        k(    3) = (   0.0000000  -0.4079545   0.1324934), wk =   0.0555556
        k(    4) = (  -0.0000000   0.6119318  -0.1987401), wk =   0.0277778
        k(    5) = (  -0.1766495  -0.1019886   0.1324934), wk =   0.0555556
        k(    6) = (  -0.1766495  -0.3059659   0.1987401), wk =   0.1111111
        k(    7) = (  -0.1766495   0.7139205  -0.1324934), wk =   0.1111111
        k(    8) = (  -0.1766495   0.5099432  -0.0662467), wk =   0.1111111
        k(    9) = (  -0.1766495   0.3059659   0.0000000), wk =   0.0555556
        k(   10) = (  -0.3532990  -0.2039773   0.2649868), wk =   0.0555556
        k(   11) = (  -0.3532990   0.8159091  -0.0662467), wk =   0.1111111
        k(   12) = (  -0.3532990   0.6119318   0.0000000), wk =   0.0555556
        k(   13) = (   0.5299485   0.3059659  -0.3974803), wk =   0.0277778
        k(   14) = (   0.0000000   0.0000000   0.1987401), wk =   0.0185185
        k(   15) = (   0.0000000  -0.2039773   0.2649868), wk =   0.0555556
        k(   16) = (   0.0000000   0.8159091  -0.0662467), wk =   0.0555556
        k(   17) = (   0.0000000   0.6119318   0.0000000), wk =   0.0555556
        k(   18) = (   0.0000000   0.4079545   0.0662467), wk =   0.0555556
        k(   19) = (  -0.1766495  -0.1019886   0.3312336), wk =   0.0555556
        k(   20) = (  -0.1766495   0.9178977   0.0000000), wk =   0.1111111
        k(   21) = (  -0.1766495   0.7139205   0.0662467), wk =   0.1111111
        k(   22) = (  -0.1766495   0.5099432   0.1324934), wk =   0.1111111
        k(   23) = (   0.7065980   0.4079545  -0.3312336), wk =   0.0555556
        k(   24) = (   0.7065980   0.2039773  -0.2649868), wk =   0.1111111
        k(   25) = (   0.7065980  -0.0000000  -0.1987401), wk =   0.0555556
        k(   26) = (   0.5299485   0.3059659  -0.1987401), wk =   0.0555556
        k(   27) = (   0.0000000   0.0000000   0.3974803), wk =   0.0185185
        k(   28) = (   0.0000000   1.0198864   0.0662467), wk =   0.0555556
        k(   29) = (   0.0000000   0.8159091   0.1324934), wk =   0.0555556
        k(   30) = (   0.8832475   0.5099432  -0.2649868), wk =   0.0555556
        k(   31) = (   0.8832475   0.3059659  -0.1987401), wk =   0.0555556
        k(   32) = (  -0.0000000   0.0000000  -0.5962204), wk =   0.0092593

                       cryst. coord.
        k(    1) = (   0.0000000   0.0000000   0.0000000), wk =   0.0092593
        k(    2) = (   0.0000000  -0.0000000   0.1666667), wk =   0.0555556
        k(    3) = (   0.0000000  -0.0000000   0.3333333), wk =   0.0555556
        k(    4) = (   0.0000000   0.0000000  -0.5000000), wk =   0.0277778
        k(    5) = (  -0.0000000   0.1666667   0.1666667), wk =   0.0555556
        k(    6) = (  -0.0000000   0.1666667   0.3333333), wk =   0.1111111
        k(    7) = (  -0.0000000   0.1666667  -0.5000000), wk =   0.1111111
        k(    8) = (  -0.0000000   0.1666667  -0.3333333), wk =   0.1111111
        k(    9) = (  -0.0000000   0.1666667  -0.1666667), wk =   0.0555556
        k(   10) = (  -0.0000000   0.3333333   0.3333333), wk =   0.0555556
        k(   11) = (  -0.0000000   0.3333333  -0.5000000), wk =   0.1111111
        k(   12) = (  -0.0000000   0.3333333  -0.3333333), wk =   0.0555556
        k(   13) = (   0.0000000  -0.5000000  -0.5000000), wk =   0.0277778
        k(   14) = (   0.1666667   0.1666667   0.1666667), wk =   0.0185185
        k(   15) = (   0.1666667   0.1666667   0.3333333), wk =   0.0555556
        k(   16) = (   0.1666667   0.1666667  -0.5000000), wk =   0.0555556
        k(   17) = (   0.1666667   0.1666667  -0.3333333), wk =   0.0555556
        k(   18) = (   0.1666667   0.1666667  -0.1666667), wk =   0.0555556
        k(   19) = (   0.1666667   0.3333333   0.3333333), wk =   0.0555556
        k(   20) = (   0.1666667   0.3333333  -0.5000000), wk =   0.1111111
        k(   21) = (   0.1666667   0.3333333  -0.3333333), wk =   0.1111111
        k(   22) = (   0.1666667   0.3333333  -0.1666667), wk =   0.1111111
        k(   23) = (   0.1666667  -0.5000000  -0.5000000), wk =   0.0555556
        k(   24) = (   0.1666667  -0.5000000  -0.3333333), wk =   0.1111111
        k(   25) = (   0.1666667  -0.5000000  -0.1666667), wk =   0.0555556
        k(   26) = (   0.1666667  -0.3333333  -0.3333333), wk =   0.0555556
        k(   27) = (   0.3333333   0.3333333   0.3333333), wk =   0.0185185
        k(   28) = (   0.3333333   0.3333333  -0.5000000), wk =   0.0555556
        k(   29) = (   0.3333333   0.3333333  -0.3333333), wk =   0.0555556
        k(   30) = (   0.3333333  -0.5000000  -0.5000000), wk =   0.0555556
        k(   31) = (   0.3333333  -0.5000000  -0.3333333), wk =   0.0555556
        k(   32) = (  -0.5000000  -0.5000000  -0.5000000), wk =   0.0092593

     Dense  grid:    97549 G-vectors     FFT dimensions: (  72,  72,  72)

     Smooth grid:    45409 G-vectors     FFT dimensions: (  54,  54,  54)

     Dynamical RAM for                 wfc:       2.94 MB

     Dynamical RAM for     wfc (w. buffer):      97.12 MB

     Dynamical RAM for           str. fact:       4.47 MB

     Dynamical RAM for           local pot:       0.00 MB

     Dynamical RAM for          nlocal pot:       8.83 MB

     Dynamical RAM for                qrad:       4.82 MB

     Dynamical RAM for          rho,v,vnew:      13.01 MB

     Dynamical RAM for               rhoin:       4.34 MB

     Dynamical RAM for            rho*nmix:      23.82 MB

     Dynamical RAM for           G-vectors:       5.93 MB

     Dynamical RAM for          h,s,v(r/c):       0.21 MB

     Dynamical RAM for          <psi|beta>:       0.05 MB

     Dynamical RAM for                 psi:       5.89 MB

     Dynamical RAM for                hpsi:       5.89 MB

     Dynamical RAM for                spsi:       5.89 MB

     Dynamical RAM for      wfcinit/wfcrot:       5.91 MB

     Dynamical RAM for           addusdens:     285.79 MB

     Dynamical RAM for          addusforce:     301.44 MB

     Dynamical RAM for         addusstress:     299.18 MB

     Estimated static dynamical RAM per process >     158.70 MB

     Estimated max dynamical RAM per process >     483.96 MB

     Check: negative core charge=   -0.000005

     Initial potential from superposition of free atoms

     starting charge      67.0945, renormalised to      68.0000
     Starting wfcs are   54 randomized atomic wfcs
     Checking if some PAW data can be deallocated... 

     total cpu time spent up to now is        1.2 secs

     per-process dynamical memory:   560.4 Mb

     Self-consistent Calculation
[tb_dev] Currently allocated     1.86E+00 Mbytes, locked:    0 /   3
[tb_pin] Currently allocated     0.00E+00 Mbytes, locked:    0 /   0

     iteration #  1     ecut=    60.00 Ry     beta= 0.70
     Davidson diagonalization with overlap

---- Real-time Memory Report at c_bands before calling an iterative solver
           988 MiB given to the printing process from OS
           547 MiB allocation reported by mallinfo(arena+hblkhd)
       1779775 MiB available memory on the node where the printing process lives
     GPU memory used/free/total (MiB): 2283 / 180358 / 182642
------------------
     ethr =  1.00E-02,  avg # of iterations =  1.1

     total cpu time spent up to now is        1.6 secs

     total energy              =    -934.44389370 Ry
     estimated scf accuracy    <       4.45813968 Ry
[tb_dev] Currently allocated     0.00E+00 Mbytes, locked:    0 /   0
[tb_pin] Currently allocated     0.00E+00 Mbytes, locked:    0 /   0

     iteration #  2     ecut=    60.00 Ry     beta= 0.70
     Davidson diagonalization with overlap

---- Real-time Memory Report at c_bands before calling an iterative solver
          1036 MiB given to the printing process from OS
           623 MiB allocation reported by mallinfo(arena+hblkhd)
       1779779 MiB available memory on the node where the printing process lives
     GPU memory used/free/total (MiB): 2283 / 180358 / 182642
------------------
     ethr =  6.56E-03,  avg # of iterations =  8.8

     total cpu time spent up to now is        2.8 secs

     total energy              =    -933.68884820 Ry
     estimated scf accuracy    <      16.64054546 Ry
[tb_dev] Currently allocated     0.00E+00 Mbytes, locked:    0 /   0
[tb_pin] Currently allocated     0.00E+00 Mbytes, locked:    0 /   0

     iteration #  3     ecut=    60.00 Ry     beta= 0.70
     Davidson diagonalization with overlap

---- Real-time Memory Report at c_bands before calling an iterative solver
          1040 MiB given to the printing process from OS
           627 MiB allocation reported by mallinfo(arena+hblkhd)
       1779786 MiB available memory on the node where the printing process lives
     GPU memory used/free/total (MiB): 2285 / 180356 / 182642
------------------
     ethr =  6.56E-03,  avg # of iterations =  6.4

     total cpu time spent up to now is        3.6 secs

     total energy              =    -936.72714949 Ry
     estimated scf accuracy    <       0.05513515 Ry
[tb_dev] Currently allocated     0.00E+00 Mbytes, locked:    0 /   0
[tb_pin] Currently allocated     0.00E+00 Mbytes, locked:    0 /   0

     iteration #  4     ecut=    60.00 Ry     beta= 0.70
     Davidson diagonalization with overlap

---- Real-time Memory Report at c_bands before calling an iterative solver
          1043 MiB given to the printing process from OS
           629 MiB allocation reported by mallinfo(arena+hblkhd)
       1779795 MiB available memory on the node where the printing process lives
     GPU memory used/free/total (MiB): 2285 / 180356 / 182642
------------------
     ethr =  8.11E-05,  avg # of iterations =  8.3

     total cpu time spent up to now is        4.6 secs

     total energy              =    -936.68809088 Ry
     estimated scf accuracy    <       0.30662701 Ry
[tb_dev] Currently allocated     0.00E+00 Mbytes, locked:    0 /   0
[tb_pin] Currently allocated     0.00E+00 Mbytes, locked:    0 /   0

     iteration #  5     ecut=    60.00 Ry     beta= 0.70
     Davidson diagonalization with overlap

---- Real-time Memory Report at c_bands before calling an iterative solver
          1045 MiB given to the printing process from OS
           619 MiB allocation reported by mallinfo(arena+hblkhd)
       1779839 MiB available memory on the node where the printing process lives
     GPU memory used/free/total (MiB): 2285 / 180356 / 182642
------------------
     ethr =  8.11E-05,  avg # of iterations =  8.9

     total cpu time spent up to now is        5.8 secs

     total energy              =    -936.78696706 Ry
     estimated scf accuracy    <       0.65375716 Ry
[tb_dev] Currently allocated     0.00E+00 Mbytes, locked:    0 /   0
[tb_pin] Currently allocated     0.00E+00 Mbytes, locked:    0 /   0

     iteration #  6     ecut=    60.00 Ry     beta= 0.70
     Davidson diagonalization with overlap

---- Real-time Memory Report at c_bands before calling an iterative solver
          1049 MiB given to the printing process from OS
           632 MiB allocation reported by mallinfo(arena+hblkhd)
       1779750 MiB available memory on the node where the printing process lives
     GPU memory used/free/total (MiB): 2285 / 180356 / 182642
------------------
     ethr =  8.11E-05,  avg # of iterations =  6.2

     total cpu time spent up to now is        6.6 secs

     total energy              =    -936.82166236 Ry
     estimated scf accuracy    <       0.06376251 Ry
[tb_dev] Currently allocated     0.00E+00 Mbytes, locked:    0 /   0
[tb_pin] Currently allocated     0.00E+00 Mbytes, locked:    0 /   0

     iteration #  7     ecut=    60.00 Ry     beta= 0.70
     Davidson diagonalization with overlap

---- Real-time Memory Report at c_bands before calling an iterative solver
          1051 MiB given to the printing process from OS
           634 MiB allocation reported by mallinfo(arena+hblkhd)
       1779757 MiB available memory on the node where the printing process lives
     GPU memory used/free/total (MiB): 2285 / 180356 / 182642
------------------
     ethr =  8.11E-05,  avg # of iterations =  5.0

     total cpu time spent up to now is        7.3 secs

     total energy              =    -936.83668314 Ry
     estimated scf accuracy    <       0.00008416 Ry
[tb_dev] Currently allocated     0.00E+00 Mbytes, locked:    0 /   0
[tb_pin] Currently allocated     0.00E+00 Mbytes, locked:    0 /   0

     iteration #  8     ecut=    60.00 Ry     beta= 0.70
     Davidson diagonalization with overlap

---- Real-time Memory Report at c_bands before calling an iterative solver
          1054 MiB given to the printing process from OS
           635 MiB allocation reported by mallinfo(arena+hblkhd)
       1779748 MiB available memory on the node where the printing process lives
     GPU memory used/free/total (MiB): 2285 / 180356 / 182642
------------------
     ethr =  1.24E-07,  avg # of iterations = 14.1

     total cpu time spent up to now is        8.9 secs

     total energy              =    -936.83765472 Ry
     estimated scf accuracy    <       0.00443968 Ry
[tb_dev] Currently allocated     0.00E+00 Mbytes, locked:    0 /   0
[tb_pin] Currently allocated     0.00E+00 Mbytes, locked:    0 /   0

     iteration #  9     ecut=    60.00 Ry     beta= 0.70
     Davidson diagonalization with overlap

---- Real-time Memory Report at c_bands before calling an iterative solver
          1054 MiB given to the printing process from OS
           636 MiB allocation reported by mallinfo(arena+hblkhd)
       1779738 MiB available memory on the node where the printing process lives
     GPU memory used/free/total (MiB): 2285 / 180356 / 182642
------------------
     ethr =  1.24E-07,  avg # of iterations =  8.5

     total cpu time spent up to now is        9.9 secs

     total energy              =    -936.83787941 Ry
     estimated scf accuracy    <       0.00029919 Ry
[tb_dev] Currently allocated     0.00E+00 Mbytes, locked:    0 /   0
[tb_pin] Currently allocated     0.00E+00 Mbytes, locked:    0 /   0

     iteration # 10     ecut=    60.00 Ry     beta= 0.70
     Davidson diagonalization with overlap

---- Real-time Memory Report at c_bands before calling an iterative solver
          1054 MiB given to the printing process from OS
           639 MiB allocation reported by mallinfo(arena+hblkhd)
       1779758 MiB available memory on the node where the printing process lives
     GPU memory used/free/total (MiB): 2285 / 180356 / 182642
------------------
     ethr =  1.24E-07,  avg # of iterations =  7.9

     total cpu time spent up to now is       10.9 secs

     total energy              =    -936.83804467 Ry
     estimated scf accuracy    <       0.00025639 Ry
[tb_dev] Currently allocated     0.00E+00 Mbytes, locked:    0 /   0
[tb_pin] Currently allocated     0.00E+00 Mbytes, locked:    0 /   0

     iteration # 11     ecut=    60.00 Ry     beta= 0.70
     Davidson diagonalization with overlap

---- Real-time Memory Report at c_bands before calling an iterative solver
          1054 MiB given to the printing process from OS
           639 MiB allocation reported by mallinfo(arena+hblkhd)
       1779759 MiB available memory on the node where the printing process lives
     GPU memory used/free/total (MiB): 2285 / 180356 / 182642
------------------
     ethr =  1.24E-07,  avg # of iterations =  1.5

     total cpu time spent up to now is       11.3 secs

     total energy              =    -936.83799896 Ry
     estimated scf accuracy    <       0.00016158 Ry
[tb_dev] Currently allocated     0.00E+00 Mbytes, locked:    0 /   0
[tb_pin] Currently allocated     0.00E+00 Mbytes, locked:    0 /   0

     iteration # 12     ecut=    60.00 Ry     beta= 0.70
     Davidson diagonalization with overlap

---- Real-time Memory Report at c_bands before calling an iterative solver
          1054 MiB given to the printing process from OS
           639 MiB allocation reported by mallinfo(arena+hblkhd)
       1779759 MiB available memory on the node where the printing process lives
     GPU memory used/free/total (MiB): 2285 / 180356 / 182642
------------------
     ethr =  1.24E-07,  avg # of iterations =  4.8

     total cpu time spent up to now is       12.0 secs

     total energy              =    -936.83801809 Ry
     estimated scf accuracy    <       0.00001135 Ry
[tb_dev] Currently allocated     0.00E+00 Mbytes, locked:    0 /   0
[tb_pin] Currently allocated     0.00E+00 Mbytes, locked:    0 /   0

     iteration # 13     ecut=    60.00 Ry     beta= 0.70
     Davidson diagonalization with overlap

---- Real-time Memory Report at c_bands before calling an iterative solver
          1055 MiB given to the printing process from OS
           639 MiB allocation reported by mallinfo(arena+hblkhd)
       1779758 MiB available memory on the node where the printing process lives
     GPU memory used/free/total (MiB): 2285 / 180356 / 182642
------------------
     ethr =  1.67E-08,  avg # of iterations =  5.0

     total cpu time spent up to now is       12.7 secs

     total energy              =    -936.83802102 Ry
     estimated scf accuracy    <       0.00000100 Ry
[tb_dev] Currently allocated     0.00E+00 Mbytes, locked:    0 /   0
[tb_pin] Currently allocated     0.00E+00 Mbytes, locked:    0 /   0

     iteration # 14     ecut=    60.00 Ry     beta= 0.70
     Davidson diagonalization with overlap

---- Real-time Memory Report at c_bands before calling an iterative solver
          1055 MiB given to the printing process from OS
           639 MiB allocation reported by mallinfo(arena+hblkhd)
       1779823 MiB available memory on the node where the printing process lives
     GPU memory used/free/total (MiB): 2285 / 180356 / 182642
------------------
     ethr =  1.47E-09,  avg # of iterations =  5.9

     total cpu time spent up to now is       13.5 secs

     total energy              =    -936.83802176 Ry
     estimated scf accuracy    <       0.00000013 Ry
[tb_dev] Currently allocated     0.00E+00 Mbytes, locked:    0 /   0
[tb_pin] Currently allocated     0.00E+00 Mbytes, locked:    0 /   0

     iteration # 15     ecut=    60.00 Ry     beta= 0.70
     Davidson diagonalization with overlap

---- Real-time Memory Report at c_bands before calling an iterative solver
          1055 MiB given to the printing process from OS
           639 MiB allocation reported by mallinfo(arena+hblkhd)
       1779826 MiB available memory on the node where the printing process lives
     GPU memory used/free/total (MiB): 2285 / 180356 / 182642
------------------
     ethr =  1.88E-10,  avg # of iterations =  4.2

     total cpu time spent up to now is       14.2 secs

     total energy              =    -936.83802172 Ry
     estimated scf accuracy    <       0.00000019 Ry
[tb_dev] Currently allocated     0.00E+00 Mbytes, locked:    0 /   0
[tb_pin] Currently allocated     0.00E+00 Mbytes, locked:    0 /   0

     iteration # 16     ecut=    60.00 Ry     beta= 0.70
     Davidson diagonalization with overlap

---- Real-time Memory Report at c_bands before calling an iterative solver
          1055 MiB given to the printing process from OS
           639 MiB allocation reported by mallinfo(arena+hblkhd)
       1779839 MiB available memory on the node where the printing process lives
     GPU memory used/free/total (MiB): 2285 / 180356 / 182642
------------------
     ethr =  1.88E-10,  avg # of iterations =  2.1

     total cpu time spent up to now is       14.7 secs

     total energy              =    -936.83802171 Ry
     estimated scf accuracy    <       0.00000005 Ry
[tb_dev] Currently allocated     0.00E+00 Mbytes, locked:    0 /   0
[tb_pin] Currently allocated     0.00E+00 Mbytes, locked:    0 /   0

     iteration # 17     ecut=    60.00 Ry     beta= 0.70
     Davidson diagonalization with overlap

---- Real-time Memory Report at c_bands before calling an iterative solver
          1055 MiB given to the printing process from OS
           639 MiB allocation reported by mallinfo(arena+hblkhd)
       1779840 MiB available memory on the node where the printing process lives
     GPU memory used/free/total (MiB): 2285 / 180356 / 182642
------------------
     ethr =  7.43E-11,  avg # of iterations =  4.9

     total cpu time spent up to now is       15.4 secs

     total energy              =    -936.83802173 Ry
     estimated scf accuracy    <          1.4E-09 Ry
[tb_dev] Currently allocated     0.00E+00 Mbytes, locked:    0 /   0
[tb_pin] Currently allocated     0.00E+00 Mbytes, locked:    0 /   0

     iteration # 18     ecut=    60.00 Ry     beta= 0.70
     Davidson diagonalization with overlap

---- Real-time Memory Report at c_bands before calling an iterative solver
          1055 MiB given to the printing process from OS
           639 MiB allocation reported by mallinfo(arena+hblkhd)
       1779876 MiB available memory on the node where the printing process lives
     GPU memory used/free/total (MiB): 2285 / 180356 / 182642
------------------
     ethr =  2.02E-12,  avg # of iterations =  6.0

     total cpu time spent up to now is       16.2 secs

     total energy              =    -936.83802173 Ry
     estimated scf accuracy    <          3.1E-09 Ry
[tb_dev] Currently allocated     0.00E+00 Mbytes, locked:    0 /   0
[tb_pin] Currently allocated     0.00E+00 Mbytes, locked:    0 /   0

     iteration # 19     ecut=    60.00 Ry     beta= 0.70
     Davidson diagonalization with overlap

---- Real-time Memory Report at c_bands before calling an iterative solver
          1055 MiB given to the printing process from OS
           639 MiB allocation reported by mallinfo(arena+hblkhd)
       1779885 MiB available memory on the node where the printing process lives
     GPU memory used/free/total (MiB): 2285 / 180356 / 182642
------------------
     ethr =  2.02E-12,  avg # of iterations =  1.8

     total cpu time spent up to now is       16.6 secs

     total energy              =    -936.83802173 Ry
     estimated scf accuracy    <          1.7E-09 Ry
[tb_dev] Currently allocated     0.00E+00 Mbytes, locked:    0 /   0
[tb_pin] Currently allocated     0.00E+00 Mbytes, locked:    0 /   0

     iteration # 20     ecut=    60.00 Ry     beta= 0.70
     Davidson diagonalization with overlap

---- Real-time Memory Report at c_bands before calling an iterative solver
          1055 MiB given to the printing process from OS
           639 MiB allocation reported by mallinfo(arena+hblkhd)
       1779905 MiB available memory on the node where the printing process lives
     GPU memory used/free/total (MiB): 2285 / 180356 / 182642
------------------
     ethr =  2.02E-12,  avg # of iterations =  4.5

     total cpu time spent up to now is       17.3 secs

     total energy              =    -936.83802173 Ry
     estimated scf accuracy    <          7.8E-11 Ry
[tb_dev] Currently allocated     0.00E+00 Mbytes, locked:    0 /   0
[tb_pin] Currently allocated     0.00E+00 Mbytes, locked:    0 /   0

     iteration # 21     ecut=    60.00 Ry     beta= 0.70
     Davidson diagonalization with overlap

---- Real-time Memory Report at c_bands before calling an iterative solver
          1055 MiB given to the printing process from OS
           639 MiB allocation reported by mallinfo(arena+hblkhd)
       1779889 MiB available memory on the node where the printing process lives
     GPU memory used/free/total (MiB): 2285 / 180356 / 182642
------------------
     ethr =  1.14E-13,  avg # of iterations =  6.9

     total cpu time spent up to now is       18.2 secs

     total energy              =    -936.83802173 Ry
     estimated scf accuracy    <          1.4E-10 Ry
[tb_dev] Currently allocated     0.00E+00 Mbytes, locked:    0 /   0
[tb_pin] Currently allocated     0.00E+00 Mbytes, locked:    0 /   0

     iteration # 22     ecut=    60.00 Ry     beta= 0.70
     Davidson diagonalization with overlap

---- Real-time Memory Report at c_bands before calling an iterative solver
          1055 MiB given to the printing process from OS
           639 MiB allocation reported by mallinfo(arena+hblkhd)
       1779955 MiB available memory on the node where the printing process lives
     GPU memory used/free/total (MiB): 2285 / 180356 / 182642
------------------
     ethr =  1.14E-13,  avg # of iterations =  3.6

     total cpu time spent up to now is       18.8 secs

     End of self-consistent calculation

          k = 0.0000 0.0000 0.0000 (  5691 PWs)   bands (ev):

   -47.0439 -47.0291 -34.8024 -34.7996 -23.3730 -23.3730 -23.3071 -23.2159
   -23.2159 -23.1260  -9.7949  -9.1271  -9.1271  -8.1886  -8.0083  -8.0083
     2.6177   2.6177   2.8121   2.8906   2.8906   3.7730   4.9863   4.9904
     4.9904   5.8235   6.2998   6.2998   6.4464   6.4464   6.4813   6.6066
     7.0733   7.0733

     occupation numbers 
     1.0000   1.0000   1.0000   1.0000   1.0000   1.0000   1.0000   1.0000
     1.0000   1.0000   1.0000   1.0000   1.0000   1.0000   1.0000   1.0000
     1.0000   1.0000   1.0000   1.0000   1.0000   1.0000   1.0000   1.0000
     1.0000   1.0000   1.0000   1.0000   1.0000   1.0000   1.0000   1.0000
     1.0000   1.0000

          k = 0.0000-0.2040 0.0662 (  5665 PWs)   bands (ev):

   -47.0429 -47.0300 -34.8022 -34.7998 -23.3642 -23.3630 -23.2947 -23.2279
   -23.2269 -23.1381  -9.6864  -9.0668  -9.0632  -8.2675  -8.1157  -8.0957
     2.5706   2.6650   2.9751   3.1271   3.1491   3.8307   4.6656   4.7498
     4.8164   5.8017   6.0292   6.2954   6.2983   6.5781   6.6307   6.7037
     6.9401   7.0006

     occupation numbers 
     1.0000   1.0000   1.0000   1.0000   1.0000   1.0000   1.0000   1.0000
     1.0000   1.0000   1.0000   1.0000   1.0000   1.0000   1.0000   1.0000
     1.0000   1.0000   1.0000   1.0000   1.0000   1.0000   1.0000   1.0000
     1.0000   1.0000   1.0000   1.0000   1.0000   1.0000   1.0000   1.0000
     1.0000   1.0000

          k = 0.0000-0.4080 0.1325 (  5674 PWs)   bands (ev):

   -47.0402 -47.0327 -34.8017 -34.8003 -23.3389 -23.3353 -23.2614 -23.2599
   -23.2566 -23.1710  -9.3871  -8.9056  -8.8872  -8.5151  -8.3629  -8.3195
     2.7318   2.8868   3.2510   3.6324   3.6871   3.9500   3.9917   4.3626
     4.5657   5.2859   5.5897   5.8961   6.5146   6.6276   6.6445   6.7573
     6.8807   7.0067

     occupation numbers 
     1.0000   1.0000   1.0000   1.0000   1.0000   1.0000   1.0000   1.0000
     1.0000   1.0000   1.0000   1.0000   1.0000   1.0000   1.0000   1.0000
     1.0000   1.0000   1.0000   1.0000   1.0000   1.0000   1.0000   1.0000
     1.0000   1.0000   1.0000   1.0000   1.0000   1.0000   1.0000   1.0000
     1.0000   1.0000

          k =-0.0000 0.6119-0.1987 (  5674 PWs)   bands (ev):

   -47.0364 -47.0364 -34.8010 -34.8010 -23.3010 -23.3010 -23.2966 -23.2966
   -23.2160 -23.2160  -8.9841  -8.9841  -8.6570  -8.6570  -8.5679  -8.5679
     3.0995   3.0995   3.3643   3.3643   3.8460   3.8460   4.3179   4.3179
     4.7920   4.7920   5.2229   5.2229   6.6846   6.6846   6.7941   6.7941
     6.8756   6.8756

     occupation numbers 
     1.0000   1.0000   1.0000   1.0000   1.0000   1.0000   1.0000   1.0000
     1.0000   1.0000   1.0000   1.0000   1.0000   1.0000   1.0000   1.0000
     1.0000   1.0000   1.0000   1.0000   1.0000   1.0000   1.0000   1.0000
     1.0000   1.0000   1.0000   1.0000   1.0000   1.0000   1.0000   1.0000
     1.0000   1.0000

          k =-0.1766-0.1020 0.1325 (  5671 PWs)   bands (ev):

   -47.0427 -47.0303 -34.8022 -34.7998 -23.3757 -23.3545 -23.2838 -23.2510
   -23.2139 -23.1363  -9.6774  -9.1071  -8.9700  -8.3827  -8.1158  -8.0462
     2.6055   2.6789   2.8524   3.1790   3.2494   3.9856   4.2684   4.9374
     4.9929   5.8015   5.9634   6.1790   6.3650   6.3876   6.5407   6.6969
     6.9648   7.0129

     occupation numbers 
     1.0000   1.0000   1.0000   1.0000   1.0000   1.0000   1.0000   1.0000
     1.0000   1.0000   1.0000   1.0000   1.0000   1.0000   1.0000   1.0000
     1.0000   1.0000   1.0000   1.0000   1.0000   1.0000   1.0000   1.0000
     1.0000   1.0000   1.0000   1.0000   1.0000   1.0000   1.0000   1.0000
     1.0000   1.0000

          k =-0.1766-0.3060 0.1987 (  5666 PWs)   bands (ev):

   -47.0407 -47.0321 -34.8018 -34.8002 -23.3685 -23.3383 -23.2915 -23.2466
   -23.2242 -23.1515  -9.5002  -9.0289  -8.7804  -8.6359  -8.2245  -8.1726
     2.5572   2.8272   3.1893   3.4035   3.5624   3.7900   4.3172   4.5336
     4.9159   5.4644   5.7951   6.1224   6.2378   6.3793   6.5190   6.7345
     6.8488   7.0043

     occupation numbers 
     1.0000   1.0000   1.0000   1.0000   1.0000   1.0000   1.0000   1.0000
     1.0000   1.0000   1.0000   1.0000   1.0000   1.0000   1.0000   1.0000
     1.0000   1.0000   1.0000   1.0000   1.0000   1.0000   1.0000   1.0000
     1.0000   1.0000   1.0000   1.0000   1.0000   1.0000   1.0000   1.0000
     1.0000   1.0000

          k =-0.1766 0.7139-0.1325 (  5682 PWs)   bands (ev):

   -47.0377 -47.0352 -34.8013 -34.8008 -23.3429 -23.3319 -23.3073 -23.2550
   -23.2040 -23.1847  -9.1878  -8.9931  -8.8466  -8.4843  -8.4686  -8.4018
     2.7395   2.9564   3.1907   3.6315   3.8448   3.9299   4.1625   4.4352
     4.6618   5.0774   5.5051   5.8379   6.3131   6.5443   6.5748   6.6750
     6.8621   6.9571

     occupation numbers 
     1.0000   1.0000   1.0000   1.0000   1.0000   1.0000   1.0000   1.0000
     1.0000   1.0000   1.0000   1.0000   1.0000   1.0000   1.0000   1.0000
     1.0000   1.0000   1.0000   1.0000   1.0000   1.0000   1.0000   1.0000
     1.0000   1.0000   1.0000   1.0000   1.0000   1.0000   1.0000   1.0000
     1.0000   1.0000

          k =-0.1766 0.5099-0.0662 (  5664 PWs)   bands (ev):

   -47.0386 -47.0343 -34.8015 -34.8006 -23.3598 -23.3037 -23.2960 -23.2677
   -23.2283 -23.1697  -9.2931  -8.8530  -8.7644  -8.6546  -8.5752  -8.2375
     2.6722   3.1094   3.2451   3.3754   3.5874   4.0014   4.2579   4.4648
     4.7565   5.1764   5.4285   6.0478   6.2220   6.3954   6.6322   6.7990
     6.8569   6.9873

     occupation numbers 
     1.0000   1.0000   1.0000   1.0000   1.0000   1.0000   1.0000   1.0000
     1.0000   1.0000   1.0000   1.0000   1.0000   1.0000   1.0000   1.0000
     1.0000   1.0000   1.0000   1.0000   1.0000   1.0000   1.0000   1.0000
     1.0000   1.0000   1.0000   1.0000   1.0000   1.0000   1.0000   1.0000
     1.0000   1.0000

          k =-0.1766 0.3060 0.0000 (  5672 PWs)   bands (ev):

   -47.0414 -47.0315 -34.8020 -34.8001 -23.3691 -23.3355 -23.2706 -23.2611
   -23.2345 -23.1491  -9.5413  -9.0113  -8.9105  -8.4390  -8.3265  -8.1057
     2.5885   2.7881   3.0960   3.2028   3.6406   3.9749   4.1140   4.3699
     5.0320   5.6486   5.9024   6.0853   6.3510   6.4503   6.6155   6.7550
     6.8196   7.0366

     occupation numbers 
     1.0000   1.0000   1.0000   1.0000   1.0000   1.0000   1.0000   1.0000
     1.0000   1.0000   1.0000   1.0000   1.0000   1.0000   1.0000   1.0000
     1.0000   1.0000   1.0000   1.0000   1.0000   1.0000   1.0000   1.0000
     1.0000   1.0000   1.0000   1.0000   1.0000   1.0000   1.0000   1.0000
     1.0000   1.0000

          k =-0.3533-0.2040 0.2650 (  5670 PWs)   bands (ev):

   -47.0402 -47.0327 -34.8018 -34.8003 -23.3811 -23.3466 -23.3342 -23.2106
   -23.2058 -23.1419  -9.5087  -9.0669  -8.8834  -8.5494  -8.1739  -8.1262
     2.5565   2.7145   2.9311   3.0672   3.6757   4.0069   4.6338   4.8469
     5.2611   5.5402   5.7800   5.9607   6.0160   6.3278   6.3366   6.6589
     6.6711   6.9265

     occupation numbers 
     1.0000   1.0000   1.0000   1.0000   1.0000   1.0000   1.0000   1.0000
     1.0000   1.0000   1.0000   1.0000   1.0000   1.0000   1.0000   1.0000
     1.0000   1.0000   1.0000   1.0000   1.0000   1.0000   1.0000   1.0000
     1.0000   1.0000   1.0000   1.0000   1.0000   1.0000   1.0000   1.0000
     1.0000   1.0000

          k =-0.3533 0.8159-0.0662 (  5681 PWs)   bands (ev):

   -47.0386 -47.0343 -34.8015 -34.8006 -23.3732 -23.3647 -23.3353 -23.2208
   -23.1746 -23.1539  -9.3741  -9.0910  -8.9874  -8.3487  -8.2728  -8.2355
     2.5152   2.6563   2.8751   3.2098   3.9131   4.2575   4.4471   4.8848
     5.0992   5.4788   5.7344   5.8907   6.0165   6.2094   6.3618   6.5165
     6.7060   6.9479

     occupation numbers 
     1.0000   1.0000   1.0000   1.0000   1.0000   1.0000   1.0000   1.0000
     1.0000   1.0000   1.0000   1.0000   1.0000   1.0000   1.0000   1.0000
     1.0000   1.0000   1.0000   1.0000   1.0000   1.0000   1.0000   1.0000
     1.0000   1.0000   1.0000   1.0000   1.0000   1.0000   1.0000   1.0000
     1.0000   1.0000

          k =-0.3533 0.6119 0.0000 (  5680 PWs)   bands (ev):

   -47.0364 -47.0364 -34.8011 -34.8011 -23.3737 -23.3452 -23.3047 -23.2529
   -23.1858 -23.1626  -9.2228  -9.1188  -8.8244  -8.5210  -8.4303  -8.2269
     2.5338   2.7430   3.1677   3.5210   3.8296   3.9015   4.3770   4.7336
     4.9407   5.2979   5.6248   5.8316   6.2063   6.2518   6.4028   6.6748
     6.7507   6.9719

     occupation numbers 
     1.0000   1.0000   1.0000   1.0000   1.0000   1.0000   1.0000   1.0000
     1.0000   1.0000   1.0000   1.0000   1.0000   1.0000   1.0000   1.0000
     1.0000   1.0000   1.0000   1.0000   1.0000   1.0000   1.0000   1.0000
     1.0000   1.0000   1.0000   1.0000   1.0000   1.0000   1.0000   1.0000
     1.0000   1.0000

          k = 0.5299 0.3060-0.3975 (  5688 PWs)   bands (ev):

   -47.0389 -47.0340 -34.8016 -34.8005 -23.3841 -23.3771 -23.3469 -23.2080
   -23.1625 -23.1421  -9.4437  -9.1345  -9.0345  -8.2978  -8.1966  -8.1656
     2.5184   2.5438   2.7052   2.8664   4.2262   4.4662   4.7179   5.0935
     5.1916   5.2889   5.7266   5.8029   6.0268   6.1215   6.3919   6.4368
     6.6175   6.8833

     occupation numbers 
     1.0000   1.0000   1.0000   1.0000   1.0000   1.0000   1.0000   1.0000
     1.0000   1.0000   1.0000   1.0000   1.0000   1.0000   1.0000   1.0000
     1.0000   1.0000   1.0000   1.0000   1.0000   1.0000   1.0000   1.0000
     1.0000   1.0000   1.0000   1.0000   1.0000   1.0000   1.0000   1.0000
     1.0000   1.0000

          k = 0.0000 0.0000 0.1987 (  5646 PWs)   bands (ev):

   -47.0429 -47.0300 -34.8022 -34.7998 -23.3628 -23.3628 -23.2957 -23.2268
   -23.2268 -23.1390  -9.6975  -9.0589  -9.0589  -8.3091  -8.0915  -8.0915
     2.7125   2.7125   2.9605   3.1019   3.1019   3.8713   4.7749   4.7816
     4.7816   5.9283   5.9598   5.9598   6.2069   6.4583   6.4583   6.6546
     7.0885   7.0885

     occupation numbers 
     1.0000   1.0000   1.0000   1.0000   1.0000   1.0000   1.0000   1.0000
     1.0000   1.0000   1.0000   1.0000   1.0000   1.0000   1.0000   1.0000
     1.0000   1.0000   1.0000   1.0000   1.0000   1.0000   1.0000   1.0000
     1.0000   1.0000   1.0000   1.0000   1.0000   1.0000   1.0000   1.0000
     1.0000   1.0000

          k = 0.0000-0.2040 0.2650 (  5653 PWs)   bands (ev):

   -47.0414 -47.0315 -34.8019 -34.8001 -23.3693 -23.3325 -23.2724 -23.2587
   -23.2354 -23.1499  -9.5581  -8.9980  -8.9055  -8.4972  -8.2840  -8.1095
     2.6175   2.8557   3.1608   3.4059   3.5271   4.0185   4.2951   4.3902
     4.8124   5.3722   5.8128   6.0766   6.1301   6.4522   6.6334   6.6480
     6.9620   7.0107

     occupation numbers 
     1.0000   1.0000   1.0000   1.0000   1.0000   1.0000   1.0000   1.0000
     1.0000   1.0000   1.0000   1.0000   1.0000   1.0000   1.0000   1.0000
     1.0000   1.0000   1.0000   1.0000   1.0000   1.0000   1.0000   1.0000
     1.0000   1.0000   1.0000   1.0000   1.0000   1.0000   1.0000   1.0000
     1.0000   1.0000

          k = 0.0000 0.8159-0.0662 (  5686 PWs)   bands (ev):

   -47.0386 -47.0343 -34.8014 -34.8006 -23.3608 -23.3005 -23.2924 -23.2704
   -23.2303 -23.1697  -9.3011  -8.8493  -8.8082  -8.6405  -8.5381  -8.2525
     2.6295   3.0607   3.4722   3.6231   3.7420   4.0197   4.0571   4.4803
     4.6540   4.7744   5.4886   5.9893   6.3077   6.3906   6.6523   6.7335
     6.8525   6.8963

     occupation numbers 
     1.0000   1.0000   1.0000   1.0000   1.0000   1.0000   1.0000   1.0000
     1.0000   1.0000   1.0000   1.0000   1.0000   1.0000   1.0000   1.0000
     1.0000   1.0000   1.0000   1.0000   1.0000   1.0000   1.0000   1.0000
     1.0000   1.0000   1.0000   1.0000   1.0000   1.0000   1.0000   1.0000
     1.0000   1.0000

          k = 0.0000 0.6119 0.0000 (  5666 PWs)   bands (ev):

   -47.0377 -47.0352 -34.8013 -34.8008 -23.3405 -23.3331 -23.3103 -23.2525
   -23.2035 -23.1857  -9.1911  -8.9932  -8.8374  -8.4968  -8.4750  -8.3887
     2.8731   3.0198   3.0922   3.3145   3.7388   4.0010   4.2927   4.5624
     4.8768   5.0564   5.4884   5.6766   6.3010   6.5233   6.5826   6.7202
     6.7558   6.9841

     occupation numbers 
     1.0000   1.0000   1.0000   1.0000   1.0000   1.0000   1.0000   1.0000
     1.0000   1.0000   1.0000   1.0000   1.0000   1.0000   1.0000   1.0000
     1.0000   1.0000   1.0000   1.0000   1.0000   1.0000   1.0000   1.0000
     1.0000   1.0000   1.0000   1.0000   1.0000   1.0000   1.0000   1.0000
     1.0000   1.0000

          k = 0.0000 0.4080 0.0662 (  5677 PWs)   bands (ev):

   -47.0407 -47.0322 -34.8019 -34.8002 -23.3677 -23.3400 -23.2923 -23.2461
   -23.2235 -23.1516  -9.4950  -9.0368  -8.7620  -8.6450  -8.2354  -8.1624
     2.6730   2.8071   2.9134   3.4816   3.5053   3.7367   4.3210   4.6734
     4.9158   5.6712   5.8421   6.0785   6.2196   6.3342   6.5109   6.7428
     6.8367   7.0084

     occupation numbers 
     1.0000   1.0000   1.0000   1.0000   1.0000   1.0000   1.0000   1.0000
     1.0000   1.0000   1.0000   1.0000   1.0000   1.0000   1.0000   1.0000
     1.0000   1.0000   1.0000   1.0000   1.0000   1.0000   1.0000   1.0000
     1.0000   1.0000   1.0000   1.0000   1.0000   1.0000   1.0000   1.0000
     1.0000   1.0000

          k =-0.1766-0.1020 0.3312 (  5662 PWs)   bands (ev):

   -47.0407 -47.0322 -34.8018 -34.8002 -23.3673 -23.3378 -23.2907 -23.2474
   -23.2231 -23.1526  -9.5173  -9.0180  -8.7545  -8.6797  -8.2374  -8.1534
     2.7310   2.8369   3.1960   3.4811   3.5285   3.7987   4.3589   4.7053
     4.7885   5.4064   5.6061   6.0944   6.1022   6.2618   6.3698   6.7107
     6.8875   7.0129

     occupation numbers 
     1.0000   1.0000   1.0000   1.0000   1.0000   1.0000   1.0000   1.0000
     1.0000   1.0000   1.0000   1.0000   1.0000   1.0000   1.0000   1.0000
     1.0000   1.0000   1.0000   1.0000   1.0000   1.0000   1.0000   1.0000
     1.0000   1.0000   1.0000   1.0000   1.0000   1.0000   1.0000   1.0000
     1.0000   1.0000

          k =-0.1766 0.9179 0.0000 (  5673 PWs)   bands (ev):

   -47.0389 -47.0340 -34.8015 -34.8006 -23.3725 -23.3326 -23.3152 -23.2392
   -23.2058 -23.1566  -9.3851  -8.9518  -8.9168  -8.5168  -8.4121  -8.1767
     2.5948   2.9113   3.1457   3.5846   3.6528   4.0379   4.2362   4.6794
     4.9312   5.2406   5.6898   5.8460   6.0829   6.2407   6.4184   6.6349
     6.7772   6.9097

     occupation numbers 
     1.0000   1.0000   1.0000   1.0000   1.0000   1.0000   1.0000   1.0000
     1.0000   1.0000   1.0000   1.0000   1.0000   1.0000   1.0000   1.0000
     1.0000   1.0000   1.0000   1.0000   1.0000   1.0000   1.0000   1.0000
     1.0000   1.0000   1.0000   1.0000   1.0000   1.0000   1.0000   1.0000
     1.0000   1.0000

          k =-0.1766 0.7139 0.0662 (  5680 PWs)   bands (ev):

   -47.0364 -47.0364 -34.8011 -34.8010 -23.3635 -23.3623 -23.2777 -23.2759
   -23.1728 -23.1722  -9.1919  -9.1775  -8.7428  -8.6442  -8.3056  -8.2881
     2.6106   2.7262   3.1658   3.4152   3.8589   4.2326   4.2830   4.5729
     4.9253   5.2816   5.7584   5.8696   5.9715   6.2418   6.4365   6.5918
     6.7856   6.9016

     occupation numbers 
     1.0000   1.0000   1.0000   1.0000   1.0000   1.0000   1.0000   1.0000
     1.0000   1.0000   1.0000   1.0000   1.0000   1.0000   1.0000   1.0000
     1.0000   1.0000   1.0000   1.0000   1.0000   1.0000   1.0000   1.0000
     1.0000   1.0000   1.0000   1.0000   1.0000   1.0000   1.0000   1.0000
     1.0000   1.0000

          k =-0.1766 0.5099 0.1325 (  5680 PWs)   bands (ev):

   -47.0389 -47.0340 -34.8015 -34.8005 -23.3725 -23.3339 -23.3171 -23.2392
   -23.2049 -23.1562  -9.3707  -8.9533  -8.9081  -8.5170  -8.4223  -8.1700
     2.5593   2.9102   3.0099   3.3201   3.6720   4.0675   4.2260   4.8104
     4.9455   5.4811   5.6308   5.9344   6.1855   6.3692   6.4507   6.5800
     6.7721   6.9894

     occupation numbers 
     1.0000   1.0000   1.0000   1.0000   1.0000   1.0000   1.0000   1.0000
     1.0000   1.0000   1.0000   1.0000   1.0000   1.0000   1.0000   1.0000
     1.0000   1.0000   1.0000   1.0000   1.0000   1.0000   1.0000   1.0000
     1.0000   1.0000   1.0000   1.0000   1.0000   1.0000   1.0000   1.0000
     1.0000   1.0000

          k = 0.7066 0.4080-0.3312 (  5675 PWs)   bands (ev):

   -47.0386 -47.0343 -34.8015 -34.8006 -23.3722 -23.3644 -23.3355 -23.2198
   -23.1748 -23.1547  -9.3858  -9.0981  -8.9770  -8.3513  -8.2867  -8.2225
     2.6743   2.7268   2.7976   3.1401   4.0156   4.1847   4.5445   4.8344
     5.2780   5.3773   5.7161   5.7666   6.0206   6.1358   6.3130   6.4251
     6.5796   6.9414

     occupation numbers 
     1.0000   1.0000   1.0000   1.0000   1.0000   1.0000   1.0000   1.0000
     1.0000   1.0000   1.0000   1.0000   1.0000   1.0000   1.0000   1.0000
     1.0000   1.0000   1.0000   1.0000   1.0000   1.0000   1.0000   1.0000
     1.0000   1.0000   1.0000   1.0000   1.0000   1.0000   1.0000   1.0000
     1.0000   1.0000

          k = 0.7066 0.2040-0.2650 (  5680 PWs)   bands (ev):

   -47.0377 -47.0352 -34.8013 -34.8008 -23.3761 -23.3743 -23.3153 -23.2377
   -23.1627 -23.1567  -9.3152  -9.1765  -8.8973  -8.4562  -8.2630  -8.2054
     2.5306   2.5629   2.9304   3.4188   3.7080   4.4425   4.5966   4.7666
     5.2553   5.3838   5.6057   5.7251   5.9948   6.1564   6.4155   6.4890
     6.6345   6.9301

     occupation numbers 
     1.0000   1.0000   1.0000   1.0000   1.0000   1.0000   1.0000   1.0000
     1.0000   1.0000   1.0000   1.0000   1.0000   1.0000   1.0000   1.0000
     1.0000   1.0000   1.0000   1.0000   1.0000   1.0000   1.0000   1.0000
     1.0000   1.0000   1.0000   1.0000   1.0000   1.0000   1.0000   1.0000
     1.0000   1.0000

          k = 0.7066-0.0000-0.1987 (  5680 PWs)   bands (ev):

   -47.0364 -47.0364 -34.8011 -34.8011 -23.3630 -23.3630 -23.2772 -23.2772
   -23.1722 -23.1722  -9.1805  -9.1805  -8.6984  -8.6984  -8.2931  -8.2931
     2.6262   2.6262   3.2967   3.2967   3.9924   3.9924   4.4463   4.4463
     5.0873   5.0873   5.8537   5.8537   6.1701   6.1701   6.5273   6.5273
     6.8782   6.8782

     occupation numbers 
     1.0000   1.0000   1.0000   1.0000   1.0000   1.0000   1.0000   1.0000
     1.0000   1.0000   1.0000   1.0000   1.0000   1.0000   1.0000   1.0000
     1.0000   1.0000   1.0000   1.0000   1.0000   1.0000   1.0000   1.0000
     1.0000   1.0000   1.0000   1.0000   1.0000   1.0000   1.0000   1.0000
     1.0000   1.0000

          k = 0.5299 0.3060-0.1987 (  5687 PWs)   bands (ev):

   -47.0386 -47.0343 -34.8015 -34.8006 -23.3724 -23.3649 -23.3362 -23.2200
   -23.1745 -23.1543  -9.3753  -9.0935  -8.9819  -8.3540  -8.2778  -8.2270
     2.6023   2.7259   2.7980   3.0094   3.9714   4.2765   4.5595   4.8178
     5.2233   5.3441   5.7952   5.9991   6.0972   6.1399   6.3785   6.3946
     6.5784   6.9633

     occupation numbers 
     1.0000   1.0000   1.0000   1.0000   1.0000   1.0000   1.0000   1.0000
     1.0000   1.0000   1.0000   1.0000   1.0000   1.0000   1.0000   1.0000
     1.0000   1.0000   1.0000   1.0000   1.0000   1.0000   1.0000   1.0000
     1.0000   1.0000   1.0000   1.0000   1.0000   1.0000   1.0000   1.0000
     1.0000   1.0000

          k = 0.0000 0.0000 0.3975 (  5635 PWs)   bands (ev):

   -47.0402 -47.0327 -34.8017 -34.8003 -23.3348 -23.3348 -23.2641 -23.2562
   -23.2562 -23.1737  -9.4253  -8.8684  -8.8684  -8.6268  -8.3117  -8.3117
     3.0363   3.0363   3.3355   3.6457   3.6457   4.2071   4.2306   4.2306
     4.3105   5.2508   5.2508   5.5667   6.1847   6.5509   6.5509   6.6314
     6.9936   6.9936

     occupation numbers 
     1.0000   1.0000   1.0000   1.0000   1.0000   1.0000   1.0000   1.0000
     1.0000   1.0000   1.0000   1.0000   1.0000   1.0000   1.0000   1.0000
     1.0000   1.0000   1.0000   1.0000   1.0000   1.0000   1.0000   1.0000
     1.0000   1.0000   1.0000   1.0000   1.0000   1.0000   1.0000   1.0000
     1.0000   1.0000

          k = 0.0000 1.0199 0.0662 (  5656 PWs)   bands (ev):

   -47.0386 -47.0343 -34.8014 -34.8006 -23.3591 -23.3001 -23.2920 -23.2683
   -23.2314 -23.1710  -9.3240  -8.8597  -8.7861  -8.6543  -8.5481  -8.2407
     2.8201   3.2196   3.4563   3.6860   3.7021   4.0061   4.1855   4.4983
     4.6558   4.6570   5.3131   5.7947   6.1604   6.1918   6.6312   6.7408
     6.8220   6.8725

     occupation numbers 
     1.0000   1.0000   1.0000   1.0000   1.0000   1.0000   1.0000   1.0000
     1.0000   1.0000   1.0000   1.0000   1.0000   1.0000   1.0000   1.0000
     1.0000   1.0000   1.0000   1.0000   1.0000   1.0000   1.0000   1.0000
     1.0000   1.0000   1.0000   1.0000   1.0000   1.0000   1.0000   1.0000
     1.0000   1.0000

          k = 0.0000 0.8159 0.1325 (  5667 PWs)   bands (ev):

   -47.0364 -47.0364 -34.8011 -34.8010 -23.3737 -23.3426 -23.3063 -23.2500
   -23.1878 -23.1628  -9.2320  -9.1420  -8.8097  -8.5177  -8.4258  -8.2346
     2.5748   3.0232   3.0628   3.5268   3.8462   3.8510   4.5802   4.6581
     5.0441   5.2042   5.6412   5.6493   5.9316   6.2333   6.4576   6.5075
     6.6648   6.9503

     occupation numbers 
     1.0000   1.0000   1.0000   1.0000   1.0000   1.0000   1.0000   1.0000
     1.0000   1.0000   1.0000   1.0000   1.0000   1.0000   1.0000   1.0000
     1.0000   1.0000   1.0000   1.0000   1.0000   1.0000   1.0000   1.0000
     1.0000   1.0000   1.0000   1.0000   1.0000   1.0000   1.0000   1.0000
     1.0000   1.0000

          k = 0.8832 0.5099-0.2650 (  5663 PWs)   bands (ev):

   -47.0377 -47.0352 -34.8013 -34.8008 -23.3399 -23.3307 -23.3073 -23.2519
   -23.2053 -23.1872  -9.2261  -9.0175  -8.8172  -8.4929  -8.4839  -8.3796
     3.0893   3.1549   3.1974   3.7288   3.8165   3.9635   4.1166   4.4269
     4.7814   4.9323   5.2594   5.4576   6.2342   6.3163   6.4912   6.6687
     6.7083   6.9269

     occupation numbers 
     1.0000   1.0000   1.0000   1.0000   1.0000   1.0000   1.0000   1.0000
     1.0000   1.0000   1.0000   1.0000   1.0000   1.0000   1.0000   1.0000
     1.0000   1.0000   1.0000   1.0000   1.0000   1.0000   1.0000   1.0000
     1.0000   1.0000   1.0000   1.0000   1.0000   1.0000   1.0000   1.0000
     1.0000   1.0000

          k = 0.8832 0.3060-0.1987 (  5680 PWs)   bands (ev):

   -47.0364 -47.0364 -34.8010 -34.8010 -23.3621 -23.3621 -23.2761 -23.2761
   -23.1731 -23.1731  -9.1986  -9.1986  -8.6890  -8.6890  -8.2964  -8.2964
     2.7599   2.7599   3.2993   3.2993   4.1064   4.1064   4.3732   4.3732
     5.1460   5.1460   5.6573   5.6573   6.0503   6.0503   6.4353   6.4353
     6.8261   6.8261

     occupation numbers 
     1.0000   1.0000   1.0000   1.0000   1.0000   1.0000   1.0000   1.0000
     1.0000   1.0000   1.0000   1.0000   1.0000   1.0000   1.0000   1.0000
     1.0000   1.0000   1.0000   1.0000   1.0000   1.0000   1.0000   1.0000
     1.0000   1.0000   1.0000   1.0000   1.0000   1.0000   1.0000   1.0000
     1.0000   1.0000

          k =-0.0000 0.0000-0.5962 (  5632 PWs)   bands (ev):

   -47.0364 -47.0364 -34.8010 -34.8010 -23.2959 -23.2959 -23.2959 -23.2959
   -23.2197 -23.2197  -9.0372  -9.0372  -8.5974  -8.5974  -8.5974  -8.5974
     3.5708   3.5708   3.5708   3.5708   3.8053   3.8053   4.4187   4.4187
     4.4187   4.4187   4.8158   4.8158   6.4599   6.4599   6.7738   6.7738
     6.7738   6.7738

     occupation numbers 
     1.0000   1.0000   1.0000   1.0000   1.0000   1.0000   1.0000   1.0000
     1.0000   1.0000   1.0000   1.0000   1.0000   1.0000   1.0000   1.0000
     1.0000   1.0000   1.0000   1.0000   1.0000   1.0000   1.0000   1.0000
     1.0000   1.0000   1.0000   1.0000   1.0000   1.0000   1.0000   1.0000
     1.0000   1.0000

     highest occupied level (ev):     7.0885

!    total energy              =    -936.83802173 Ry
     estimated scf accuracy    <          9.3E-13 Ry

     The total energy is the sum of the following terms:
     one-electron contribution =    -141.93253258 Ry
     hartree contribution      =     105.26213380 Ry
     xc contribution           =    -108.17958996 Ry
     ewald contribution        =    -328.53351786 Ry
     one-center paw contrib.   =    -463.45451515 Ry
      -> PAW hartree energy AE =     292.88341840 Ry
      -> PAW hartree energy PS =    -291.36618055 Ry
      -> PAW xc energy AE      =    -560.60736549 Ry
      -> PAW xc energy PS      =      95.63561249 Ry
      -> total E_H with PAW    =     106.77937165 Ry
      -> total E_XC with PAW   =    -573.15134295 Ry

     convergence has been achieved in  22 iterations

     Forces acting on atoms (cartesian axes, Ry/au):

     atom    1 type  1   force =    -0.00000000    0.00000000   -0.00034956
     atom    2 type  1   force =     0.00000000   -0.00000000   -0.00034956
     atom    3 type  2   force =     0.00831365   -0.00195592   -0.00269674
     atom    4 type  2   force =    -0.00246295    0.00817780   -0.00269674
     atom    5 type  2   force =    -0.00585071   -0.00622187   -0.00269674
     atom    6 type  2   force =     0.00246295    0.00817780   -0.00269674
     atom    7 type  2   force =    -0.00831365   -0.00195592   -0.00269674
     atom    8 type  2   force =     0.00585071   -0.00622187   -0.00269674
     atom    9 type  3   force =    -0.00000000    0.00000000    0.00843977
     atom   10 type  3   force =    -0.00000000    0.00000000    0.00843977
     The non-local contrib.  to forces
     atom    1 type  1   force =    -0.00000000   -0.00000000    0.00909879
     atom    2 type  1   force =    -0.00000000    0.00000000    0.00909879
     atom    3 type  2   force =     0.32484701   -0.18956607   -0.04218374
     atom    4 type  2   force =     0.00174553    0.37610880   -0.04218374
     atom    5 type  2   force =    -0.32659254   -0.18654273   -0.04218374
     atom    6 type  2   force =    -0.00174553    0.37610880   -0.04218374
     atom    7 type  2   force =    -0.32484701   -0.18956607   -0.04218374
     atom    8 type  2   force =     0.32659254   -0.18654273   -0.04218374
     atom    9 type  3   force =     0.00000000    0.00000000   -0.01133230
     atom   10 type  3   force =    -0.00000000    0.00000000   -0.01133230
     The ionic contribution  to forces
     atom    1 type  1   force =    -0.00000000   -0.00000000   -1.11810896
     atom    2 type  1   force =     0.00000000   -0.00000000   -1.11810896
     atom    3 type  2   force =    -3.60154973    2.72164926    0.36454109
     atom    4 type  2   force =    -0.55624254   -4.47985819    0.36454109
     atom    5 type  2   force =     4.15779227    1.75820893    0.36454109
     atom    6 type  2   force =     0.55624254   -4.47985819    0.36454109
     atom    7 type  2   force =     3.60154973    2.72164926    0.36454109
     atom    8 type  2   force =    -4.15779227    1.75820893    0.36454109
     atom    9 type  3   force =    -0.00000000   -0.00000000    0.02448568
     atom   10 type  3   force =     0.00000000    0.00000000    0.02448568
     The local contribution  to forces
     atom    1 type  1   force =    -0.00000000   -0.00000000    1.10866069
     atom    2 type  1   force =     0.00000000    0.00000000    1.10866069
     atom    3 type  2   force =     3.28638177   -2.53567675   -0.32495671
     atom    4 type  2   force =     0.55276960    4.11392848   -0.32495671
     atom    5 type  2   force =    -3.83915137   -1.57825172   -0.32495671
     atom    6 type  2   force =    -0.55276960    4.11392847   -0.32495671
     atom    7 type  2   force =    -3.28638177   -2.53567675   -0.32495671
     atom    8 type  2   force =     3.83915137   -1.57825172   -0.32495671
     atom    9 type  3   force =     0.00000000    0.00000000    0.00000223
     atom   10 type  3   force =    -0.00000000    0.00000000    0.00000223
     The core correction contribution to forces
     atom    1 type  1   force =     0.00000000    0.00000000    0.00000000
     atom    2 type  1   force =     0.00000000    0.00000000    0.00000000
     atom    3 type  2   force =    -0.00136594    0.00163787   -0.00009726
     atom    4 type  2   force =    -0.00073546   -0.00200187   -0.00009726
     atom    5 type  2   force =     0.00210140    0.00036400   -0.00009726
     atom    6 type  2   force =     0.00073546   -0.00200187   -0.00009726
     atom    7 type  2   force =     0.00136594    0.00163787   -0.00009726
     atom    8 type  2   force =    -0.00210140    0.00036400   -0.00009726
     atom    9 type  3   force =     0.00000000    0.00000000   -0.00471588
     atom   10 type  3   force =     0.00000000   -0.00000000   -0.00471588
     The Hubbard contrib.    to forces
     atom    1 type  1   force =     0.00000000    0.00000000    0.00000000
     atom    2 type  1   force =     0.00000000    0.00000000    0.00000000
     atom    3 type  2   force =     0.00000000    0.00000000    0.00000000
     atom    4 type  2   force =     0.00000000    0.00000000    0.00000000
     atom    5 type  2   force =     0.00000000    0.00000000    0.00000000
     atom    6 type  2   force =     0.00000000    0.00000000    0.00000000
     atom    7 type  2   force =     0.00000000    0.00000000    0.00000000
     atom    8 type  2   force =     0.00000000    0.00000000    0.00000000
     atom    9 type  3   force =     0.00000000    0.00000000    0.00000000
     atom   10 type  3   force =     0.00000000    0.00000000    0.00000000
     The SCF correction term to forces
     atom    1 type  1   force =    -0.00000000    0.00000000    0.00000002
     atom    2 type  1   force =    -0.00000000   -0.00000000    0.00000002
     atom    3 type  2   force =     0.00000054   -0.00000023   -0.00000002
     atom    4 type  2   force =    -0.00000007    0.00000058   -0.00000002
     atom    5 type  2   force =    -0.00000047   -0.00000035   -0.00000002
     atom    6 type  2   force =     0.00000007    0.00000058   -0.00000002
     atom    7 type  2   force =    -0.00000054   -0.00000023   -0.00000002
     atom    8 type  2   force =     0.00000047   -0.00000035   -0.00000002
     atom    9 type  3   force =     0.00000000    0.00000000    0.00000014
     atom   10 type  3   force =    -0.00000000    0.00000000    0.00000014

     Total force =     0.024980     Total SCF correction =     0.000001


     Computing stress (Cartesian axis) and pressure

          total   stress  (Ry/bohr**3)                   (kbar)     P=      -38.17
  -0.00030400   0.00000000  -0.00000000          -44.72        0.00       -0.00
   0.00000000  -0.00030400  -0.00000000            0.00      -44.72       -0.00
  -0.00000000  -0.00000000  -0.00017043           -0.00       -0.00      -25.07

     kinetic stress (kbar)  26195.51     -0.00      0.00
                               -0.00  26195.51      0.00
                               -0.00      0.00  26170.01

     local   stress (kbar) -12988.18     -0.00     -0.00
                               -0.00 -12988.18      0.00
                               -0.00      0.00 -10814.29

     nonloc. stress (kbar)   6834.22      0.00     -0.00
                               -0.00   6834.22      0.00
                                0.00      0.00   6879.92

     hartree stress (kbar)   7319.51     -0.00     -0.00
                               -0.00   7319.51     -0.00
                               -0.00     -0.00   6784.99

     exc-cor stress (kbar)   1066.28      0.00      0.00
                                0.00   1066.28     -0.00
                                0.00     -0.00   1062.98

     corecor stress (kbar)  -6728.55     -0.00     -0.00
                               -0.00  -6728.55      0.00
                               -0.00      0.00  -6729.25

     ewald   stress (kbar) -21743.50      0.00      0.00
                                0.00 -21743.50     -0.00
                                0.00     -0.00 -23379.43

     hubbard stress (kbar)      0.00      0.00      0.00
                                0.00      0.00      0.00
                                0.00      0.00      0.00

     DFT-D   stress (kbar)      0.00      0.00      0.00
                                0.00      0.00      0.00
                                0.00      0.00      0.00

     XDM     stress (kbar)      0.00      0.00      0.00
                                0.00      0.00      0.00
                                0.00      0.00      0.00

     dft-nl  stress (kbar)      0.00      0.00      0.00
                                0.00      0.00      0.00
                                0.00      0.00      0.00

     TS-vdW  stress (kbar)      0.00      0.00      0.00
                                0.00      0.00      0.00
                                0.00      0.00      0.00

     MDB     stress (kbar)      0.00      0.00      0.00
                                0.00      0.00      0.00
                                0.00      0.00      0.00

     3D-RISM stress (kbar)      0.00      0.00      0.00
                                0.00      0.00      0.00
                                0.00      0.00      0.00

     Message from routine punch:
     Nothing written, as per user request (disk_io='none')
 
     init_run     :      0.55s CPU      0.85s WALL (       1 calls)
     electrons    :     17.17s CPU     17.59s WALL (       1 calls)
     forces       :      0.08s CPU      0.08s WALL (       1 calls)
     stress       :      0.16s CPU      0.17s WALL (       1 calls)

     Called by init_run:
     wfcinit      :      0.18s CPU      0.36s WALL (       1 calls)
     wfcinit:atom :      0.02s CPU      0.03s WALL (      32 calls)
     wfcinit:wfcr :      0.12s CPU      0.27s WALL (      32 calls)
     potinit      :      0.10s CPU      0.12s WALL (       1 calls)
     hinit0       :      0.20s CPU      0.23s WALL (       1 calls)

     Called by electrons:
     c_bands      :     13.48s CPU     13.79s WALL (      22 calls)
     sum_band     :      1.55s CPU      1.58s WALL (      22 calls)
     v_of_rho     :      0.10s CPU      0.11s WALL (      23 calls)
     v_h          :      0.04s CPU      0.05s WALL (      23 calls)
     v_xc         :      0.06s CPU      0.07s WALL (      25 calls)
     newd         :      0.22s CPU      0.25s WALL (      23 calls)
     PAW_pot      :      1.64s CPU      1.70s WALL (      23 calls)
     mix_rho      :      0.16s CPU      0.18s WALL (      22 calls)

     Called by c_bands:
     init_us_2    :      0.48s CPU      0.49s WALL (    1504 calls)
     cegterg      :     12.32s CPU     12.60s WALL (     704 calls)

     Called by sum_band:
     sum_band:wei :      0.00s CPU      0.00s WALL (      22 calls)
     sum_band:loo :      1.20s CPU      1.23s WALL (      22 calls)
     sum_band:buf :      0.25s CPU      0.26s WALL (     704 calls)
     sum_band:ini :      0.22s CPU      0.23s WALL (     704 calls)
     sum_band:cal :      0.01s CPU      0.01s WALL (     704 calls)
     sum_band:bec :      0.26s CPU      0.26s WALL (     704 calls)
     addusdens    :      0.23s CPU      0.24s WALL (      22 calls)
                                        0.24s GPU  (      22 calls)
     addusd:skk   :      0.01s CPU      0.01s WALL (      66 calls)
                                        0.01s GPU  (      66 calls)

     Called by *egterg:
     cdiaghg      :      5.42s CPU      5.60s WALL (    4743 calls)
                                        5.56s GPU  (    4743 calls)
     cegterg:over :      0.38s CPU      0.39s WALL (    4039 calls)
     cegterg:upda :      1.18s CPU      1.19s WALL (    4039 calls)
     cegterg:last :      0.16s CPU      0.16s WALL (    2542 calls)
     h_psi        :      3.37s CPU      3.65s WALL (    4775 calls)
     s_psi        :      1.19s CPU      1.20s WALL (    4775 calls)
     g_psi        :      0.08s CPU      0.08s WALL (    4039 calls)

     Called by h_psi:
     h_psi:calbec :      0.09s CPU      0.12s WALL (    4775 calls)
     vloc_psi     :      2.15s CPU      2.43s WALL (    4775 calls)
                                        2.39s GPU  (    4775 calls)
     add_vuspsi   :      1.00s CPU      1.02s WALL (    4775 calls)

     General routines
     calbec       :      0.10s CPU      0.13s WALL (    6023 calls)
     fft          :      0.03s CPU      0.06s WALL (     322 calls)
                                        0.02s GPU  (     299 calls)
     ffts         :      0.01s CPU      0.01s WALL (      45 calls)
                                        0.00s GPU  (      22 calls)
     fftw         :      0.16s CPU      1.48s WALL (   20188 calls)
                                        1.29s GPU  (   20188 calls)
     interpolate  :      0.07s CPU      0.07s WALL (      23 calls)
 
     Parallel routines

     PAW routines
     PAW_pot      :      1.64s CPU      1.70s WALL (      23 calls)
     PAW_symme    :      0.00s CPU      0.00s WALL (      45 calls)
 
     PWSCF        :     18.29s CPU     19.05s WALL

 
   This run was terminated on:  17: 6:23  29Nov2025            

=------------------------------------------------------------------------------=
   JOB DONE.
=------------------------------------------------------------------------------=
