
     Program PWSCF v.7.5 starts on 29Nov2025 at 17: 5:40 

     This program is part of the open-source Quantum ESPRESSO suite
     for quantum simulation of materials; please cite
         "P. Giannozzi et al., J. Phys.:Condens. Matter 21 395502 (2009);
         "P. Giannozzi et al., J. Phys.:Condens. Matter 29 465901 (2017);
         "P. Giannozzi et al., J. Chem. Phys. 152 154105 (2020);
          URL http://www.quantum-espresso.org", 
     in publications or presentations arising from this work. More details at
     http://www.quantum-espresso.org/quote

     Parallel version (MPI & OpenMP), running on       1 processor cores
     Number of MPI processes:                 1
     Threads/MPI process:                     1

     MPI processes distributed on     1 nodes
     1786434 MiB available memory on the printing compute node when the environment starts
 
     Reading input from espresso.pwi
Warning: card &CELL ignored
Warning: card &FCP ignored
Warning: card &RISM ignored

     Current dimensions of program PWSCF are:
     Max number of different atomic species (ntypx) = 10
     Max number of k-points (npk) =  40000
     Max angular momentum in pseudopotentials (lmaxx) =  4
     file O.pbesol-n-kjpaw_psl.0.1.UPF: wavefunction(s)  2P renormalized
     file Nb.pbesol-spn-kjpaw_psl.0.3.0.UPF: wavefunction(s)  4S 4P renormalized
     Message from routine setup:
     using ibrav=0 with symmetry is DISCOURAGED, use correct ibrav instead
 
     Subspace diagonalization in iterative solution of the eigenvalue problem:
     a serial algorithm will be used

 
     G-vector sticks info
     --------------------
     sticks:   dense  smooth     PW     G-vecs:    dense   smooth      PW
     Sum        2809    1695    489                95665    44419    7031
 
     Using Slab Decomposition
 


     bravais-lattice index     =            0
     lattice parameter (alat)  =      10.3483  a.u.
     unit-cell volume          =     708.5271 (a.u.)^3
     number of atoms/cell      =           10
     number of atomic types    =            3
     number of electrons       =        68.00
     number of Kohn-Sham states=           34
     kinetic-energy cutoff     =      60.0000  Ry
     charge density cutoff     =     400.0000  Ry
     scf convergence threshold =      1.0E-12
     mixing beta               =       0.7000
     number of iterations used =            8  plain     mixing
     Exchange-correlation= SLA  PW   PSX  PSC
                           (   1   4  10   8   0   0   0)

     GPU acceleration is ACTIVE.  1 visible GPUs per MPI rank


     GPU used by master process:

        Device Number: 0
        Device name: NVIDIA B200
        Compute capability : 100
        Ratio of single to double precision performance  : 16
        Memory Clock Rate (KHz): 3996000
        Memory Bus Width (bits): 7680
        Peak Memory Bandwidth (GB/s): ******

     celldm(1)=  10.348346  celldm(2)=   0.000000  celldm(3)=   0.000000
     celldm(4)=   0.000000  celldm(5)=   0.000000  celldm(6)=   0.000000

     crystal axes: (cart. coord. in units of alat)
               a(1) = (   0.468445   0.270457   0.841078 )  
               a(2) = (  -0.468445   0.270457   0.841078 )  
               a(3) = (   0.000000  -0.540913   0.841078 )  

     reciprocal axes: (cart. coord. in units 2 pi/alat)
               b(1) = (  1.067362  0.616242  0.396317 )  
               b(2) = ( -1.067362  0.616242  0.396317 )  
               b(3) = (  0.000000 -1.232483  0.396317 )  


     PseudoPot. # 1 for Li read from file:
     /home/qhossain/SSSP_1.3.0_PBEsol_efficiency/li_pbesol_v1.4.uspp.F.UPF
     MD5 check sum: aa28d9aeea6a965f2dc95ee9517b3536
     Pseudo is Ultrasoft, Zval =  3.0
     Generated by new atomic code, or converted to UPF format
     Using radial grid of  751 points,  5 beta functions with: 
                l(1) =   0
                l(2) =   0
                l(3) =   0
                l(4) =   1
                l(5) =   1
     Q(r) pseudized with 10 coefficients,  rinner =    1.150   1.150   1.150


     PseudoPot. # 2 for O  read from file:
     /home/qhossain/SSSP_1.3.0_PBEsol_efficiency/O.pbesol-n-kjpaw_psl.0.1.UPF
     MD5 check sum: 81d73d1479e654e5638b0319f0d6c2c7
     Pseudo is Projector augmented-wave + core cor, Zval =  6.0
     Generated using "atomic" code by A. Dal Corso  v.6.0 svn rev. 13079
     Shape of augmentation charge: BESSEL
     Using radial grid of 1095 points,  4 beta functions with: 
                l(1) =   0
                l(2) =   0
                l(3) =   1
                l(4) =   1
     Q(r) pseudized with 0 coefficients 


     PseudoPot. # 3 for Nb read from file:
     /home/qhossain/SSSP_1.3.0_PBEsol_efficiency/Nb.pbesol-spn-kjpaw_psl.0.3.0.UPF
     MD5 check sum: 3501bca1474143575298708b2d32ca28
     Pseudo is Projector augmented-wave + core cor, Zval = 13.0
     Generated using "atomic" code by A. Dal Corso  v.6.0 svn rev. 13079
     Shape of augmentation charge: PSQ
     Using radial grid of 1227 points,  6 beta functions with: 
                l(1) =   0
                l(2) =   0
                l(3) =   1
                l(4) =   1
                l(5) =   2
                l(6) =   2
     Q(r) pseudized with 0 coefficients 


     atomic species   valence    mass     pseudopotential
     Li                3.00     6.94000     Li( 1.00)
     O                 6.00    15.99900     O ( 1.00)
     Nb               13.00    92.90637     Nb( 1.00)

      6 Sym. Ops. (no inversion) found ( 3 have fractional translation)


                                    s                        frac. trans.

      isym =  1     identity                                     

 cryst.   s( 1) = (     1          0          0      )
                  (     0          1          0      )
                  (     0          0          1      )

 cart.    s( 1) = (  1.0000000 -0.0000000  0.0000000 )
                  (  0.0000000  1.0000000  0.0000000 )
                  ( -0.0000000 -0.0000000  1.0000000 )


      isym =  2     120 deg rotation - cryst. axis [0,0,1]       

 cryst.   s( 2) = (     0          1          0      )
                  (     0          0          1      )
                  (     1          0          0      )

 cart.    s( 2) = ( -0.5000000 -0.8660254 -0.0000000 )
                  (  0.8660254 -0.5000000 -0.0000000 )
                  ( -0.0000000  0.0000000  1.0000000 )


      isym =  3     120 deg rotation - cryst. axis [0,0,-1]      

 cryst.   s( 3) = (     0          0          1      )
                  (     1          0          0      )
                  (     0          1          0      )

 cart.    s( 3) = ( -0.5000000  0.8660254  0.0000000 )
                  ( -0.8660254 -0.5000000 -0.0000000 )
                  (  0.0000000 -0.0000000  1.0000000 )


      isym =  4     inv. 180 deg rotation - cart. axis [1,0,0]   

 cryst.   s( 4) = (     0          1          0      )    f =(  0.5000000 )
                  (     1          0          0      )       (  0.5000000 )
                  (     0          0          1      )       (  0.5000000 )

 cart.    s( 4) = ( -1.0000000 -0.0000000  0.0000000 )    f =(  0.0000000 )
                  ( -0.0000000  1.0000000  0.0000000 )       ( -0.0000000 )
                  (  0.0000000 -0.0000000  1.0000000 )       (  1.2616176 )


      isym =  5     inv. 180 deg rotation - cryst. axis [0,1,0]  

 cryst.   s( 5) = (     1          0          0      )    f =(  0.5000000 )
                  (     0          0          1      )       (  0.5000000 )
                  (     0          1          0      )       (  0.5000000 )

 cart.    s( 5) = (  0.5000000  0.8660254  0.0000000 )    f =(  0.0000000 )
                  (  0.8660254 -0.5000000 -0.0000000 )       ( -0.0000000 )
                  ( -0.0000000 -0.0000000  1.0000000 )       (  1.2616176 )


      isym =  6     inv. 180 deg rotation - cryst. axis [1,1,0]  

 cryst.   s( 6) = (     0          0          1      )    f =(  0.5000000 )
                  (     0          1          0      )       (  0.5000000 )
                  (     1          0          0      )       (  0.5000000 )

 cart.    s( 6) = (  0.5000000 -0.8660254 -0.0000000 )    f =( -0.0000000 )
                  ( -0.8660254 -0.5000000 -0.0000000 )       ( -0.0000000 )
                  (  0.0000000  0.0000000  1.0000000 )       (  1.2616176 )


   Cartesian axes

     site n.     atom                  positions (alat units)
         1        Li     tau(   1) = (   0.0000000  -0.0000000   1.9767754  )
         2        Li     tau(   2) = (   0.0000000  -0.0000000   0.7151579  )
         3        O      tau(   3) = (  -0.3002641  -0.0382953   1.4284135  )
         4        O      tau(   4) = (   0.1832967  -0.2408887   1.4284135  )
         5        O      tau(   5) = (   0.1169674   0.2791840   1.4284135  )
         6        O      tau(   6) = (   0.2851479   0.0295679   1.0078744  )
         7        O      tau(   7) = (  -0.1681805   0.2321613   1.0078744  )
         8        O      tau(   8) = (  -0.1169674  -0.2617293   1.0078744  )
         9        Nb     tau(   9) = (  -0.0000000  -0.0000000   1.2643329  )
        10        Nb     tau(  10) = (   0.0000000  -0.0000000   0.0027153  )

   Crystallographic axes

     site n.     atom                  positions (cryst. coord.)
         1        Li     tau(   1) = (  0.7834289  0.7834289  0.7834289  )
         2        Li     tau(   2) = (  0.2834289  0.2834289  0.2834289  )
         3        O      tau(   3) = (  0.2220144  0.8629954  0.6133023  )
         4        O      tau(   4) = (  0.6133023  0.2220144  0.8629954  )
         5        O      tau(   5) = (  0.8629954  0.6133023  0.2220144  )
         6        O      tau(   6) = (  0.7220144  0.1133023  0.3629954  )
         7        O      tau(   7) = (  0.3629954  0.7220144  0.1133023  )
         8        O      tau(   8) = (  0.1133023  0.3629954  0.7220144  )
         9        Nb     tau(   9) = (  0.5010761  0.5010761  0.5010761  )
        10        Nb     tau(  10) = (  0.0010761  0.0010761  0.0010761  )

     number of k points=    32
                       cart. coord. in units 2pi/alat
        k(    1) = (   0.0000000   0.0000000   0.0000000), wk =   0.0092593
        k(    2) = (   0.0000000  -0.2054139   0.0660528), wk =   0.0555556
        k(    3) = (   0.0000000  -0.4108278   0.1321055), wk =   0.0555556
        k(    4) = (  -0.0000000   0.6162417  -0.1981583), wk =   0.0277778
        k(    5) = (  -0.1778937  -0.1027070   0.1321055), wk =   0.0555556
        k(    6) = (  -0.1778937  -0.3081209   0.1981583), wk =   0.1111111
        k(    7) = (  -0.1778937   0.7189487  -0.1321055), wk =   0.1111111
        k(    8) = (  -0.1778937   0.5135348  -0.0660528), wk =   0.1111111
        k(    9) = (  -0.1778937   0.3081209   0.0000000), wk =   0.0555556
        k(   10) = (  -0.3557873  -0.2054139   0.2642111), wk =   0.0555556
        k(   11) = (  -0.3557873   0.8216556  -0.0660528), wk =   0.1111111
        k(   12) = (  -0.3557873   0.6162417   0.0000000), wk =   0.0555556
        k(   13) = (   0.5336810   0.3081209  -0.3963166), wk =   0.0277778
        k(   14) = (   0.0000000   0.0000000   0.1981583), wk =   0.0185185
        k(   15) = (   0.0000000  -0.2054139   0.2642111), wk =   0.0555556
        k(   16) = (  -0.0000000   0.8216556  -0.0660528), wk =   0.0555556
        k(   17) = (  -0.0000000   0.6162417   0.0000000), wk =   0.0555556
        k(   18) = (  -0.0000000   0.4108278   0.0660528), wk =   0.0555556
        k(   19) = (  -0.1778937  -0.1027070   0.3302638), wk =   0.0555556
        k(   20) = (  -0.1778937   0.9243626   0.0000000), wk =   0.1111111
        k(   21) = (  -0.1778937   0.7189487   0.0660528), wk =   0.1111111
        k(   22) = (  -0.1778937   0.5135348   0.1321055), wk =   0.1111111
        k(   23) = (   0.7115747   0.4108278  -0.3302638), wk =   0.0555556
        k(   24) = (   0.7115747   0.2054139  -0.2642111), wk =   0.1111111
        k(   25) = (   0.7115747  -0.0000000  -0.1981583), wk =   0.0555556
        k(   26) = (   0.5336810   0.3081209  -0.1981583), wk =   0.0555556
        k(   27) = (   0.0000000   0.0000000   0.3963166), wk =   0.0185185
        k(   28) = (  -0.0000000   1.0270696   0.0660528), wk =   0.0555556
        k(   29) = (  -0.0000000   0.8216556   0.1321055), wk =   0.0555556
        k(   30) = (   0.8894683   0.5135348  -0.2642111), wk =   0.0555556
        k(   31) = (   0.8894683   0.3081209  -0.1981583), wk =   0.0555556
        k(   32) = (  -0.0000000   0.0000000  -0.5944749), wk =   0.0092593

                       cryst. coord.
        k(    1) = (   0.0000000   0.0000000   0.0000000), wk =   0.0092593
        k(    2) = (  -0.0000000  -0.0000000   0.1666667), wk =   0.0555556
        k(    3) = (  -0.0000000  -0.0000000   0.3333333), wk =   0.0555556
        k(    4) = (   0.0000000   0.0000000  -0.5000000), wk =   0.0277778
        k(    5) = (  -0.0000000   0.1666667   0.1666667), wk =   0.0555556
        k(    6) = (  -0.0000000   0.1666667   0.3333333), wk =   0.1111111
        k(    7) = (   0.0000000   0.1666667  -0.5000000), wk =   0.1111111
        k(    8) = (   0.0000000   0.1666667  -0.3333333), wk =   0.1111111
        k(    9) = (   0.0000000   0.1666667  -0.1666667), wk =   0.0555556
        k(   10) = (  -0.0000000   0.3333333   0.3333333), wk =   0.0555556
        k(   11) = (   0.0000000   0.3333333  -0.5000000), wk =   0.1111111
        k(   12) = (   0.0000000   0.3333333  -0.3333333), wk =   0.0555556
        k(   13) = (  -0.0000000  -0.5000000  -0.5000000), wk =   0.0277778
        k(   14) = (   0.1666667   0.1666667   0.1666667), wk =   0.0185185
        k(   15) = (   0.1666667   0.1666667   0.3333333), wk =   0.0555556
        k(   16) = (   0.1666667   0.1666667  -0.5000000), wk =   0.0555556
        k(   17) = (   0.1666667   0.1666667  -0.3333333), wk =   0.0555556
        k(   18) = (   0.1666667   0.1666667  -0.1666667), wk =   0.0555556
        k(   19) = (   0.1666667   0.3333333   0.3333333), wk =   0.0555556
        k(   20) = (   0.1666667   0.3333333  -0.5000000), wk =   0.1111111
        k(   21) = (   0.1666667   0.3333333  -0.3333333), wk =   0.1111111
        k(   22) = (   0.1666667   0.3333333  -0.1666667), wk =   0.1111111
        k(   23) = (   0.1666667  -0.5000000  -0.5000000), wk =   0.0555556
        k(   24) = (   0.1666667  -0.5000000  -0.3333333), wk =   0.1111111
        k(   25) = (   0.1666667  -0.5000000  -0.1666667), wk =   0.0555556
        k(   26) = (   0.1666667  -0.3333333  -0.3333333), wk =   0.0555556
        k(   27) = (   0.3333333   0.3333333   0.3333333), wk =   0.0185185
        k(   28) = (   0.3333333   0.3333333  -0.5000000), wk =   0.0555556
        k(   29) = (   0.3333333   0.3333333  -0.3333333), wk =   0.0555556
        k(   30) = (   0.3333333  -0.5000000  -0.5000000), wk =   0.0555556
        k(   31) = (   0.3333333  -0.5000000  -0.3333333), wk =   0.0555556
        k(   32) = (  -0.5000000  -0.5000000  -0.5000000), wk =   0.0092593

     Dense  grid:    95665 G-vectors     FFT dimensions: (  72,  72,  72)

     Smooth grid:    44419 G-vectors     FFT dimensions: (  54,  54,  54)

     Dynamical RAM for                 wfc:       2.89 MB

     Dynamical RAM for     wfc (w. buffer):      95.21 MB

     Dynamical RAM for           str. fact:       4.38 MB

     Dynamical RAM for           local pot:       0.00 MB

     Dynamical RAM for          nlocal pot:       8.66 MB

     Dynamical RAM for                qrad:       4.82 MB

     Dynamical RAM for          rho,v,vnew:      12.92 MB

     Dynamical RAM for               rhoin:       4.31 MB

     Dynamical RAM for            rho*nmix:      23.36 MB

     Dynamical RAM for           G-vectors:       5.81 MB

     Dynamical RAM for          h,s,v(r/c):       0.21 MB

     Dynamical RAM for          <psi|beta>:       0.05 MB

     Dynamical RAM for                 psi:       5.77 MB

     Dynamical RAM for                hpsi:       5.77 MB

     Dynamical RAM for                spsi:       5.77 MB

     Dynamical RAM for      wfcinit/wfcrot:       5.80 MB

     Dynamical RAM for           addusdens:     280.27 MB

     Dynamical RAM for          addusforce:     295.62 MB

     Dynamical RAM for         addusstress:     293.41 MB

     Estimated static dynamical RAM per process >     156.18 MB

     Estimated max dynamical RAM per process >     475.15 MB

     Check: negative core charge=   -0.000005

     Initial potential from superposition of free atoms

     starting charge      67.0945, renormalised to      68.0000
     Starting wfcs are   54 randomized atomic wfcs
     Checking if some PAW data can be deallocated... 

     total cpu time spent up to now is        1.1 secs

     per-process dynamical memory:   555.7 Mb

     Self-consistent Calculation
[tb_dev] Currently allocated     1.86E+00 Mbytes, locked:    0 /   3
[tb_pin] Currently allocated     0.00E+00 Mbytes, locked:    0 /   0

     iteration #  1     ecut=    60.00 Ry     beta= 0.70
     Davidson diagonalization with overlap

---- Real-time Memory Report at c_bands before calling an iterative solver
           984 MiB given to the printing process from OS
           542 MiB allocation reported by mallinfo(arena+hblkhd)
       1785992 MiB available memory on the node where the printing process lives
     GPU memory used/free/total (MiB): 2275 / 180366 / 182642
------------------
     ethr =  1.00E-02,  avg # of iterations =  1.2

     total cpu time spent up to now is        1.6 secs

     total energy              =    -934.49151323 Ry
     estimated scf accuracy    <       4.37998272 Ry
[tb_dev] Currently allocated     0.00E+00 Mbytes, locked:    0 /   0
[tb_pin] Currently allocated     0.00E+00 Mbytes, locked:    0 /   0

     iteration #  2     ecut=    60.00 Ry     beta= 0.70
     Davidson diagonalization with overlap

---- Real-time Memory Report at c_bands before calling an iterative solver
          1035 MiB given to the printing process from OS
           617 MiB allocation reported by mallinfo(arena+hblkhd)
       1785939 MiB available memory on the node where the printing process lives
     GPU memory used/free/total (MiB): 2275 / 180366 / 182642
------------------
     ethr =  6.44E-03,  avg # of iterations =  8.3

     total cpu time spent up to now is        2.7 secs

     total energy              =    -934.04445741 Ry
     estimated scf accuracy    <      14.74131857 Ry
[tb_dev] Currently allocated     0.00E+00 Mbytes, locked:    0 /   0
[tb_pin] Currently allocated     0.00E+00 Mbytes, locked:    0 /   0

     iteration #  3     ecut=    60.00 Ry     beta= 0.70
     Davidson diagonalization with overlap

---- Real-time Memory Report at c_bands before calling an iterative solver
          1044 MiB given to the printing process from OS
           621 MiB allocation reported by mallinfo(arena+hblkhd)
       1785867 MiB available memory on the node where the printing process lives
     GPU memory used/free/total (MiB): 2277 / 180364 / 182642
------------------
     ethr =  6.44E-03,  avg # of iterations =  5.8

     total cpu time spent up to now is        3.5 secs

     total energy              =    -936.69881651 Ry
     estimated scf accuracy    <       0.05235250 Ry
[tb_dev] Currently allocated     0.00E+00 Mbytes, locked:    0 /   0
[tb_pin] Currently allocated     0.00E+00 Mbytes, locked:    0 /   0

     iteration #  4     ecut=    60.00 Ry     beta= 0.70
     Davidson diagonalization with overlap

---- Real-time Memory Report at c_bands before calling an iterative solver
          1046 MiB given to the printing process from OS
           623 MiB allocation reported by mallinfo(arena+hblkhd)
       1785759 MiB available memory on the node where the printing process lives
     GPU memory used/free/total (MiB): 2277 / 180364 / 182642
------------------
     ethr =  7.70E-05,  avg # of iterations =  8.9

     total cpu time spent up to now is        4.6 secs

     total energy              =    -936.70501145 Ry
     estimated scf accuracy    <       0.29248623 Ry
[tb_dev] Currently allocated     0.00E+00 Mbytes, locked:    0 /   0
[tb_pin] Currently allocated     0.00E+00 Mbytes, locked:    0 /   0

     iteration #  5     ecut=    60.00 Ry     beta= 0.70
     Davidson diagonalization with overlap

---- Real-time Memory Report at c_bands before calling an iterative solver
          1048 MiB given to the printing process from OS
           624 MiB allocation reported by mallinfo(arena+hblkhd)
       1785765 MiB available memory on the node where the printing process lives
     GPU memory used/free/total (MiB): 2277 / 180364 / 182642
------------------
     ethr =  7.70E-05,  avg # of iterations =  8.4

     total cpu time spent up to now is        5.7 secs

     total energy              =    -936.80536649 Ry
     estimated scf accuracy    <       0.41392368 Ry
[tb_dev] Currently allocated     0.00E+00 Mbytes, locked:    0 /   0
[tb_pin] Currently allocated     0.00E+00 Mbytes, locked:    0 /   0

     iteration #  6     ecut=    60.00 Ry     beta= 0.70
     Davidson diagonalization with overlap

---- Real-time Memory Report at c_bands before calling an iterative solver
          1050 MiB given to the printing process from OS
           626 MiB allocation reported by mallinfo(arena+hblkhd)
       1785761 MiB available memory on the node where the printing process lives
     GPU memory used/free/total (MiB): 2277 / 180364 / 182642
------------------
     ethr =  7.70E-05,  avg # of iterations =  6.1

     total cpu time spent up to now is        6.5 secs

     total energy              =    -936.82815317 Ry
     estimated scf accuracy    <       0.03463734 Ry
[tb_dev] Currently allocated     0.00E+00 Mbytes, locked:    0 /   0
[tb_pin] Currently allocated     0.00E+00 Mbytes, locked:    0 /   0

     iteration #  7     ecut=    60.00 Ry     beta= 0.70
     Davidson diagonalization with overlap

---- Real-time Memory Report at c_bands before calling an iterative solver
          1051 MiB given to the printing process from OS
           628 MiB allocation reported by mallinfo(arena+hblkhd)
       1785727 MiB available memory on the node where the printing process lives
     GPU memory used/free/total (MiB): 2277 / 180364 / 182642
------------------
     ethr =  5.09E-05,  avg # of iterations =  4.6

     total cpu time spent up to now is        7.2 secs

     total energy              =    -936.83895413 Ry
     estimated scf accuracy    <       0.00012997 Ry
[tb_dev] Currently allocated     0.00E+00 Mbytes, locked:    0 /   0
[tb_pin] Currently allocated     0.00E+00 Mbytes, locked:    0 /   0

     iteration #  8     ecut=    60.00 Ry     beta= 0.70
     Davidson diagonalization with overlap

---- Real-time Memory Report at c_bands before calling an iterative solver
          1053 MiB given to the printing process from OS
           619 MiB allocation reported by mallinfo(arena+hblkhd)
       1785703 MiB available memory on the node where the printing process lives
     GPU memory used/free/total (MiB): 2277 / 180364 / 182642
------------------
     ethr =  1.91E-07,  avg # of iterations = 12.7

     total cpu time spent up to now is        8.7 secs

     total energy              =    -936.83973748 Ry
     estimated scf accuracy    <       0.00411810 Ry
[tb_dev] Currently allocated     0.00E+00 Mbytes, locked:    0 /   0
[tb_pin] Currently allocated     0.00E+00 Mbytes, locked:    0 /   0

     iteration #  9     ecut=    60.00 Ry     beta= 0.70
     Davidson diagonalization with overlap

---- Real-time Memory Report at c_bands before calling an iterative solver
          1054 MiB given to the printing process from OS
           631 MiB allocation reported by mallinfo(arena+hblkhd)
       1785590 MiB available memory on the node where the printing process lives
     GPU memory used/free/total (MiB): 2277 / 180364 / 182642
------------------
     ethr =  1.91E-07,  avg # of iterations =  5.8

     total cpu time spent up to now is        9.5 secs

     total energy              =    -936.83924129 Ry
     estimated scf accuracy    <       0.00159122 Ry
[tb_dev] Currently allocated     0.00E+00 Mbytes, locked:    0 /   0
[tb_pin] Currently allocated     0.00E+00 Mbytes, locked:    0 /   0

     iteration # 10     ecut=    60.00 Ry     beta= 0.70
     Davidson diagonalization with overlap

---- Real-time Memory Report at c_bands before calling an iterative solver
          1055 MiB given to the printing process from OS
           632 MiB allocation reported by mallinfo(arena+hblkhd)
       1785592 MiB available memory on the node where the printing process lives
     GPU memory used/free/total (MiB): 2277 / 180364 / 182642
------------------
     ethr =  1.91E-07,  avg # of iterations =  7.8

     total cpu time spent up to now is       10.5 secs

     total energy              =    -936.83953959 Ry
     estimated scf accuracy    <       0.00000142 Ry
[tb_dev] Currently allocated     0.00E+00 Mbytes, locked:    0 /   0
[tb_pin] Currently allocated     0.00E+00 Mbytes, locked:    0 /   0

     iteration # 11     ecut=    60.00 Ry     beta= 0.70
     Davidson diagonalization with overlap

---- Real-time Memory Report at c_bands before calling an iterative solver
          1056 MiB given to the printing process from OS
           632 MiB allocation reported by mallinfo(arena+hblkhd)
       1785576 MiB available memory on the node where the printing process lives
     GPU memory used/free/total (MiB): 2277 / 180364 / 182642
------------------
     ethr =  2.09E-09,  avg # of iterations = 11.3

     total cpu time spent up to now is       11.9 secs

     total energy              =    -936.83954341 Ry
     estimated scf accuracy    <       0.00001794 Ry
[tb_dev] Currently allocated     0.00E+00 Mbytes, locked:    0 /   0
[tb_pin] Currently allocated     0.00E+00 Mbytes, locked:    0 /   0

     iteration # 12     ecut=    60.00 Ry     beta= 0.70
     Davidson diagonalization with overlap

---- Real-time Memory Report at c_bands before calling an iterative solver
          1056 MiB given to the printing process from OS
           632 MiB allocation reported by mallinfo(arena+hblkhd)
       1785548 MiB available memory on the node where the printing process lives
     GPU memory used/free/total (MiB): 2277 / 180364 / 182642
------------------
     ethr =  2.09E-09,  avg # of iterations =  6.2

     total cpu time spent up to now is       12.7 secs

     total energy              =    -936.83954486 Ry
     estimated scf accuracy    <       0.00000116 Ry
[tb_dev] Currently allocated     0.00E+00 Mbytes, locked:    0 /   0
[tb_pin] Currently allocated     0.00E+00 Mbytes, locked:    0 /   0

     iteration # 13     ecut=    60.00 Ry     beta= 0.70
     Davidson diagonalization with overlap

---- Real-time Memory Report at c_bands before calling an iterative solver
          1056 MiB given to the printing process from OS
           632 MiB allocation reported by mallinfo(arena+hblkhd)
       1785553 MiB available memory on the node where the printing process lives
     GPU memory used/free/total (MiB): 2277 / 180364 / 182642
------------------
     ethr =  1.70E-09,  avg # of iterations =  5.1

     total cpu time spent up to now is       13.5 secs

     total energy              =    -936.83954531 Ry
     estimated scf accuracy    <       0.00000006 Ry
[tb_dev] Currently allocated     0.00E+00 Mbytes, locked:    0 /   0
[tb_pin] Currently allocated     0.00E+00 Mbytes, locked:    0 /   0

     iteration # 14     ecut=    60.00 Ry     beta= 0.70
     Davidson diagonalization with overlap

---- Real-time Memory Report at c_bands before calling an iterative solver
          1056 MiB given to the printing process from OS
           632 MiB allocation reported by mallinfo(arena+hblkhd)
       1785555 MiB available memory on the node where the printing process lives
     GPU memory used/free/total (MiB): 2277 / 180364 / 182642
------------------
     ethr =  8.91E-11,  avg # of iterations =  5.5

     total cpu time spent up to now is       14.3 secs

     total energy              =    -936.83954531 Ry
     estimated scf accuracy    <       0.00000006 Ry
[tb_dev] Currently allocated     0.00E+00 Mbytes, locked:    0 /   0
[tb_pin] Currently allocated     0.00E+00 Mbytes, locked:    0 /   0

     iteration # 15     ecut=    60.00 Ry     beta= 0.70
     Davidson diagonalization with overlap

---- Real-time Memory Report at c_bands before calling an iterative solver
          1056 MiB given to the printing process from OS
           632 MiB allocation reported by mallinfo(arena+hblkhd)
       1785563 MiB available memory on the node where the printing process lives
     GPU memory used/free/total (MiB): 2277 / 180364 / 182642
------------------
     ethr =  8.59E-11,  avg # of iterations =  1.9

     total cpu time spent up to now is       14.7 secs

     total energy              =    -936.83954531 Ry
     estimated scf accuracy    <       0.00000002 Ry
[tb_dev] Currently allocated     0.00E+00 Mbytes, locked:    0 /   0
[tb_pin] Currently allocated     0.00E+00 Mbytes, locked:    0 /   0

     iteration # 16     ecut=    60.00 Ry     beta= 0.70
     Davidson diagonalization with overlap

---- Real-time Memory Report at c_bands before calling an iterative solver
          1056 MiB given to the printing process from OS
           632 MiB allocation reported by mallinfo(arena+hblkhd)
       1785568 MiB available memory on the node where the printing process lives
     GPU memory used/free/total (MiB): 2277 / 180364 / 182642
------------------
     ethr =  3.46E-11,  avg # of iterations =  4.6

     total cpu time spent up to now is       15.4 secs

     total energy              =    -936.83954531 Ry
     estimated scf accuracy    <          4.0E-10 Ry
[tb_dev] Currently allocated     0.00E+00 Mbytes, locked:    0 /   0
[tb_pin] Currently allocated     0.00E+00 Mbytes, locked:    0 /   0

     iteration # 17     ecut=    60.00 Ry     beta= 0.70
     Davidson diagonalization with overlap

---- Real-time Memory Report at c_bands before calling an iterative solver
          1056 MiB given to the printing process from OS
           632 MiB allocation reported by mallinfo(arena+hblkhd)
       1785570 MiB available memory on the node where the printing process lives
     GPU memory used/free/total (MiB): 2277 / 180364 / 182642
------------------
     ethr =  5.91E-13,  avg # of iterations =  9.3

     total cpu time spent up to now is       16.6 secs

     total energy              =    -936.83954531 Ry
     estimated scf accuracy    <          7.8E-09 Ry
[tb_dev] Currently allocated     0.00E+00 Mbytes, locked:    0 /   0
[tb_pin] Currently allocated     0.00E+00 Mbytes, locked:    0 /   0

     iteration # 18     ecut=    60.00 Ry     beta= 0.70
     Davidson diagonalization with overlap

---- Real-time Memory Report at c_bands before calling an iterative solver
          1056 MiB given to the printing process from OS
           632 MiB allocation reported by mallinfo(arena+hblkhd)
       1785539 MiB available memory on the node where the printing process lives
     GPU memory used/free/total (MiB): 2277 / 180364 / 182642
------------------
     ethr =  5.91E-13,  avg # of iterations =  7.3

     total cpu time spent up to now is       17.5 secs

     total energy              =    -936.83954531 Ry
     estimated scf accuracy    <          9.4E-11 Ry
[tb_dev] Currently allocated     0.00E+00 Mbytes, locked:    0 /   0
[tb_pin] Currently allocated     0.00E+00 Mbytes, locked:    0 /   0

     iteration # 19     ecut=    60.00 Ry     beta= 0.70
     Davidson diagonalization with overlap

---- Real-time Memory Report at c_bands before calling an iterative solver
          1056 MiB given to the printing process from OS
           632 MiB allocation reported by mallinfo(arena+hblkhd)
       1785573 MiB available memory on the node where the printing process lives
     GPU memory used/free/total (MiB): 2277 / 180364 / 182642
------------------
     ethr =  1.38E-13,  avg # of iterations =  6.0

     total cpu time spent up to now is       18.3 secs

     total energy              =    -936.83954531 Ry
     estimated scf accuracy    <          3.5E-11 Ry
[tb_dev] Currently allocated     0.00E+00 Mbytes, locked:    0 /   0
[tb_pin] Currently allocated     0.00E+00 Mbytes, locked:    0 /   0

     iteration # 20     ecut=    60.00 Ry     beta= 0.70
     Davidson diagonalization with overlap

---- Real-time Memory Report at c_bands before calling an iterative solver
          1056 MiB given to the printing process from OS
           632 MiB allocation reported by mallinfo(arena+hblkhd)
       1785578 MiB available memory on the node where the printing process lives
     GPU memory used/free/total (MiB): 2277 / 180364 / 182642
------------------
     ethr =  1.00E-13,  avg # of iterations =  1.2

     total cpu time spent up to now is       18.8 secs

     total energy              =    -936.83954531 Ry
     estimated scf accuracy    <          8.6E-12 Ry
[tb_dev] Currently allocated     0.00E+00 Mbytes, locked:    0 /   0
[tb_pin] Currently allocated     0.00E+00 Mbytes, locked:    0 /   0

     iteration # 21     ecut=    60.00 Ry     beta= 0.70
     Davidson diagonalization with overlap

---- Real-time Memory Report at c_bands before calling an iterative solver
          1056 MiB given to the printing process from OS
           632 MiB allocation reported by mallinfo(arena+hblkhd)
       1785573 MiB available memory on the node where the printing process lives
     GPU memory used/free/total (MiB): 2277 / 180364 / 182642
------------------
     ethr =  1.00E-13,  avg # of iterations =  2.4

     total cpu time spent up to now is       19.3 secs

     total energy              =    -936.83954531 Ry
     estimated scf accuracy    <          1.2E-12 Ry
[tb_dev] Currently allocated     0.00E+00 Mbytes, locked:    0 /   0
[tb_pin] Currently allocated     0.00E+00 Mbytes, locked:    0 /   0

     iteration # 22     ecut=    60.00 Ry     beta= 0.70
     Davidson diagonalization with overlap

---- Real-time Memory Report at c_bands before calling an iterative solver
          1056 MiB given to the printing process from OS
           632 MiB allocation reported by mallinfo(arena+hblkhd)
       1785576 MiB available memory on the node where the printing process lives
     GPU memory used/free/total (MiB): 2277 / 180364 / 182642
------------------
     ethr =  1.00E-13,  avg # of iterations =  1.0

     total cpu time spent up to now is       19.7 secs

     End of self-consistent calculation

          k = 0.0000 0.0000 0.0000 (  5517 PWs)   bands (ev):

   -46.6935 -46.6770 -34.5056 -34.5025 -23.0668 -23.0668 -22.9944 -22.8970
   -22.8970 -22.7937  -9.6052  -8.9300  -8.9300  -7.9427  -7.7333  -7.7333
     2.7813   2.7813   2.9699   3.0572   3.0572   3.9992   5.2207   5.2485
     5.2485   6.0628   6.5063   6.5063   6.6746   6.6920   6.6920   6.8521
     7.3294   7.3294

     occupation numbers 
     1.0000   1.0000   1.0000   1.0000   1.0000   1.0000   1.0000   1.0000
     1.0000   1.0000   1.0000   1.0000   1.0000   1.0000   1.0000   1.0000
     1.0000   1.0000   1.0000   1.0000   1.0000   1.0000   1.0000   1.0000
     1.0000   1.0000   1.0000   1.0000   1.0000   1.0000   1.0000   1.0000
     1.0000   1.0000

          k = 0.0000-0.2054 0.0661 (  5567 PWs)   bands (ev):

   -46.6924 -46.6781 -34.5055 -34.5027 -23.0575 -23.0560 -22.9807 -22.9102
   -22.9091 -22.8071  -9.4917  -8.8655  -8.8625  -8.0249  -7.8467  -7.8276
     2.7286   2.8293   3.1303   3.3139   3.3265   4.0535   4.9003   4.9821
     5.0646   6.0429   6.2443   6.5161   6.5175   6.8141   6.8760   6.9401
     7.1861   7.2502

     occupation numbers 
     1.0000   1.0000   1.0000   1.0000   1.0000   1.0000   1.0000   1.0000
     1.0000   1.0000   1.0000   1.0000   1.0000   1.0000   1.0000   1.0000
     1.0000   1.0000   1.0000   1.0000   1.0000   1.0000   1.0000   1.0000
     1.0000   1.0000   1.0000   1.0000   1.0000   1.0000   1.0000   1.0000
     1.0000   1.0000

          k = 0.0000-0.4108 0.1321 (  5561 PWs)   bands (ev):

   -46.6894 -46.6811 -34.5050 -34.5034 -23.0303 -23.0263 -22.9449 -22.9440
   -22.9411 -22.8437  -9.1789  -8.6918  -8.6761  -8.2773  -8.1147  -8.0684
     2.8950   3.0587   3.4169   3.8361   3.8864   4.1671   4.2036   4.5703
     4.7914   5.5004   5.8407   6.1492   6.7572   6.8369   6.8681   6.9995
     7.1207   7.2560

     occupation numbers 
     1.0000   1.0000   1.0000   1.0000   1.0000   1.0000   1.0000   1.0000
     1.0000   1.0000   1.0000   1.0000   1.0000   1.0000   1.0000   1.0000
     1.0000   1.0000   1.0000   1.0000   1.0000   1.0000   1.0000   1.0000
     1.0000   1.0000   1.0000   1.0000   1.0000   1.0000   1.0000   1.0000
     1.0000   1.0000

          k =-0.0000 0.6162-0.1982 (  5556 PWs)   bands (ev):

   -46.6852 -46.6852 -34.5042 -34.5042 -22.9895 -22.9895 -22.9845 -22.9845
   -22.8936 -22.8936  -8.7591  -8.7591  -8.4293  -8.4293  -8.3373  -8.3373
     3.2782   3.2782   3.5480   3.5480   4.0471   4.0471   4.5286   4.5286
     5.0121   5.0121   5.4673   5.4673   6.9037   6.9037   7.0387   7.0387
     7.1201   7.1201

     occupation numbers 
     1.0000   1.0000   1.0000   1.0000   1.0000   1.0000   1.0000   1.0000
     1.0000   1.0000   1.0000   1.0000   1.0000   1.0000   1.0000   1.0000
     1.0000   1.0000   1.0000   1.0000   1.0000   1.0000   1.0000   1.0000
     1.0000   1.0000   1.0000   1.0000   1.0000   1.0000   1.0000   1.0000
     1.0000   1.0000

          k =-0.1779-0.1027 0.1321 (  5539 PWs)   bands (ev):

   -46.6921 -46.6783 -34.5054 -34.5028 -23.0698 -23.0470 -22.9689 -22.9351
   -22.8949 -22.8053  -9.4836  -8.9096  -8.7612  -8.1424  -7.8533  -7.7727
     2.7759   2.8399   3.0103   3.3458   3.4359   4.2107   4.5021   5.1672
     5.2357   6.0425   6.1822   6.3954   6.5602   6.6415   6.7948   6.9321
     7.2139   7.2651

     occupation numbers 
     1.0000   1.0000   1.0000   1.0000   1.0000   1.0000   1.0000   1.0000
     1.0000   1.0000   1.0000   1.0000   1.0000   1.0000   1.0000   1.0000
     1.0000   1.0000   1.0000   1.0000   1.0000   1.0000   1.0000   1.0000
     1.0000   1.0000   1.0000   1.0000   1.0000   1.0000   1.0000   1.0000
     1.0000   1.0000

          k =-0.1779-0.3081 0.1982 (  5552 PWs)   bands (ev):

   -46.6900 -46.6804 -34.5051 -34.5032 -23.0622 -23.0294 -22.9789 -22.9281
   -22.9060 -22.8225  -9.3004  -8.8274  -8.5563  -8.4080  -7.9701  -7.9070
     2.7193   3.0006   3.3731   3.5834   3.7491   3.9941   4.5352   4.7472
     5.1481   5.6914   6.0499   6.3516   6.4691   6.6138   6.7438   6.9698
     7.0959   7.2552

     occupation numbers 
     1.0000   1.0000   1.0000   1.0000   1.0000   1.0000   1.0000   1.0000
     1.0000   1.0000   1.0000   1.0000   1.0000   1.0000   1.0000   1.0000
     1.0000   1.0000   1.0000   1.0000   1.0000   1.0000   1.0000   1.0000
     1.0000   1.0000   1.0000   1.0000   1.0000   1.0000   1.0000   1.0000
     1.0000   1.0000

          k =-0.1779 0.7189-0.1321 (  5565 PWs)   bands (ev):

   -46.6866 -46.6838 -34.5045 -34.5039 -23.0347 -23.0227 -22.9957 -22.9395
   -22.8812 -22.8593  -8.9752  -8.7781  -8.6342  -8.2414  -8.2259  -8.1568
     2.9079   3.1428   3.3822   3.8172   4.0333   4.1366   4.3602   4.6292
     4.8787   5.3146   5.7592   6.0877   6.5397   6.7715   6.7999   6.9166
     7.1077   7.2038

     occupation numbers 
     1.0000   1.0000   1.0000   1.0000   1.0000   1.0000   1.0000   1.0000
     1.0000   1.0000   1.0000   1.0000   1.0000   1.0000   1.0000   1.0000
     1.0000   1.0000   1.0000   1.0000   1.0000   1.0000   1.0000   1.0000
     1.0000   1.0000   1.0000   1.0000   1.0000   1.0000   1.0000   1.0000
     1.0000   1.0000

          k =-0.1779 0.5135-0.0661 (  5565 PWs)   bands (ev):

   -46.6876 -46.6828 -34.5047 -34.5037 -23.0529 -22.9924 -22.9839 -22.9528
   -22.9076 -22.8431  -9.0875  -8.6287  -8.5376  -8.4287  -8.3452  -7.9790
     2.8470   3.2788   3.4265   3.5630   3.7821   4.2085   4.4774   4.6799
     4.9828   5.3878   5.6575   6.3117   6.4382   6.6412   6.8525   7.0403
     7.0949   7.2356

     occupation numbers 
     1.0000   1.0000   1.0000   1.0000   1.0000   1.0000   1.0000   1.0000
     1.0000   1.0000   1.0000   1.0000   1.0000   1.0000   1.0000   1.0000
     1.0000   1.0000   1.0000   1.0000   1.0000   1.0000   1.0000   1.0000
     1.0000   1.0000   1.0000   1.0000   1.0000   1.0000   1.0000   1.0000
     1.0000   1.0000

          k =-0.1779 0.3081 0.0000 (  5574 PWs)   bands (ev):

   -46.6908 -46.6797 -34.5052 -34.5031 -23.0628 -23.0266 -22.9541 -22.9462
   -22.9170 -22.8197  -9.3417  -8.8055  -8.6993  -8.1999  -8.0755  -7.8386
     2.7542   2.9488   3.2771   3.3657   3.8489   4.1914   4.3309   4.5969
     5.2626   5.8958   6.1303   6.2929   6.5894   6.7095   6.8321   6.9912
     7.0546   7.2883

     occupation numbers 
     1.0000   1.0000   1.0000   1.0000   1.0000   1.0000   1.0000   1.0000
     1.0000   1.0000   1.0000   1.0000   1.0000   1.0000   1.0000   1.0000
     1.0000   1.0000   1.0000   1.0000   1.0000   1.0000   1.0000   1.0000
     1.0000   1.0000   1.0000   1.0000   1.0000   1.0000   1.0000   1.0000
     1.0000   1.0000

          k =-0.3558-0.2054 0.2642 (  5562 PWs)   bands (ev):

   -46.6894 -46.6811 -34.5050 -34.5033 -23.0758 -23.0385 -23.0253 -22.8910
   -22.8840 -22.8121  -9.3127  -8.8688  -8.6693  -8.3080  -7.9164  -7.8555
     2.7298   2.8782   3.1118   3.2675   3.8484   4.1881   4.8465   5.0537
     5.5068   5.7642   5.9989   6.2225   6.2582   6.5389   6.5758   6.9004
     6.9254   7.1778

     occupation numbers 
     1.0000   1.0000   1.0000   1.0000   1.0000   1.0000   1.0000   1.0000
     1.0000   1.0000   1.0000   1.0000   1.0000   1.0000   1.0000   1.0000
     1.0000   1.0000   1.0000   1.0000   1.0000   1.0000   1.0000   1.0000
     1.0000   1.0000   1.0000   1.0000   1.0000   1.0000   1.0000   1.0000
     1.0000   1.0000

          k =-0.3558 0.8217-0.0661 (  5571 PWs)   bands (ev):

   -46.6876 -46.6828 -34.5047 -34.5037 -23.0674 -23.0583 -23.0261 -22.9024
   -22.8495 -22.8255  -9.1734  -8.8874  -8.7848  -8.0930  -8.0184  -7.9739
     2.6781   2.8401   3.0659   3.3927   4.0900   4.4440   4.6463   5.0886
     5.3267   5.7145   5.9656   6.1228   6.2546   6.4573   6.6088   6.7418
     6.9583   7.2028

     occupation numbers 
     1.0000   1.0000   1.0000   1.0000   1.0000   1.0000   1.0000   1.0000
     1.0000   1.0000   1.0000   1.0000   1.0000   1.0000   1.0000   1.0000
     1.0000   1.0000   1.0000   1.0000   1.0000   1.0000   1.0000   1.0000
     1.0000   1.0000   1.0000   1.0000   1.0000   1.0000   1.0000   1.0000
     1.0000   1.0000

          k =-0.3558 0.6162 0.0000 (  5578 PWs)   bands (ev):

   -46.6852 -46.6852 -34.5042 -34.5042 -23.0681 -23.0373 -22.9928 -22.9372
   -22.8608 -22.8361  -9.0220  -8.9059  -8.6113  -8.2781  -8.1868  -7.9649
     2.7114   2.9128   3.3633   3.6953   4.0197   4.1085   4.5793   4.9379
     5.1775   5.5072   5.8359   6.0651   6.4610   6.5045   6.6392   6.9141
     6.9899   7.2218

     occupation numbers 
     1.0000   1.0000   1.0000   1.0000   1.0000   1.0000   1.0000   1.0000
     1.0000   1.0000   1.0000   1.0000   1.0000   1.0000   1.0000   1.0000
     1.0000   1.0000   1.0000   1.0000   1.0000   1.0000   1.0000   1.0000
     1.0000   1.0000   1.0000   1.0000   1.0000   1.0000   1.0000   1.0000
     1.0000   1.0000

          k = 0.5337 0.3081-0.3963 (  5566 PWs)   bands (ev):

   -46.6880 -46.6824 -34.5048 -34.5036 -23.0792 -23.0718 -23.0388 -22.8885
   -22.8364 -22.8126  -9.2474  -8.9350  -8.8350  -8.0369  -7.9395  -7.8961
     2.7015   2.7168   2.8704   3.0468   4.4047   4.6528   4.9314   5.3058
     5.3957   5.5087   5.9542   6.0148   6.2851   6.3818   6.6393   6.6703
     6.8821   7.1364

     occupation numbers 
     1.0000   1.0000   1.0000   1.0000   1.0000   1.0000   1.0000   1.0000
     1.0000   1.0000   1.0000   1.0000   1.0000   1.0000   1.0000   1.0000
     1.0000   1.0000   1.0000   1.0000   1.0000   1.0000   1.0000   1.0000
     1.0000   1.0000   1.0000   1.0000   1.0000   1.0000   1.0000   1.0000
     1.0000   1.0000

          k = 0.0000 0.0000 0.1982 (  5538 PWs)   bands (ev):

   -46.6924 -46.6781 -34.5054 -34.5027 -23.0558 -23.0558 -22.9819 -22.9088
   -22.9088 -22.8081  -9.5045  -8.8574  -8.8574  -8.0676  -7.8229  -7.8229
     2.8782   2.8782   3.1170   3.2749   3.2749   4.1035   4.9967   5.0260
     5.0260   6.1663   6.1663   6.1673   6.4220   6.7099   6.7099   6.8910
     7.3435   7.3435

     occupation numbers 
     1.0000   1.0000   1.0000   1.0000   1.0000   1.0000   1.0000   1.0000
     1.0000   1.0000   1.0000   1.0000   1.0000   1.0000   1.0000   1.0000
     1.0000   1.0000   1.0000   1.0000   1.0000   1.0000   1.0000   1.0000
     1.0000   1.0000   1.0000   1.0000   1.0000   1.0000   1.0000   1.0000
     1.0000   1.0000

          k = 0.0000-0.2054 0.2642 (  5546 PWs)   bands (ev):

   -46.6908 -46.6797 -34.5052 -34.5031 -23.0630 -23.0231 -22.9561 -22.9434
   -22.9180 -22.8207  -9.3605  -8.7932  -8.6923  -8.2621  -8.0313  -7.8414
     2.7869   3.0170   3.3293   3.5715   3.7270   4.2481   4.5011   4.6270
     5.0384   5.5950   6.0333   6.2954   6.3556   6.7012   6.8887   6.8892
     7.2094   7.2603

     occupation numbers 
     1.0000   1.0000   1.0000   1.0000   1.0000   1.0000   1.0000   1.0000
     1.0000   1.0000   1.0000   1.0000   1.0000   1.0000   1.0000   1.0000
     1.0000   1.0000   1.0000   1.0000   1.0000   1.0000   1.0000   1.0000
     1.0000   1.0000   1.0000   1.0000   1.0000   1.0000   1.0000   1.0000
     1.0000   1.0000

          k =-0.0000 0.8217-0.0661 (  5554 PWs)   bands (ev):

   -46.6876 -46.6828 -34.5046 -34.5037 -23.0541 -22.9888 -22.9798 -22.9557
   -22.9098 -22.8432  -9.0956  -8.6250  -8.5900  -8.4109  -8.3053  -7.9934
     2.8024   3.2271   3.6727   3.8114   3.9418   4.2127   4.2390   4.7047
     4.8797   5.0023   5.7283   6.2276   6.5403   6.6133   6.8909   6.9718
     7.1021   7.1454

     occupation numbers 
     1.0000   1.0000   1.0000   1.0000   1.0000   1.0000   1.0000   1.0000
     1.0000   1.0000   1.0000   1.0000   1.0000   1.0000   1.0000   1.0000
     1.0000   1.0000   1.0000   1.0000   1.0000   1.0000   1.0000   1.0000
     1.0000   1.0000   1.0000   1.0000   1.0000   1.0000   1.0000   1.0000
     1.0000   1.0000

          k =-0.0000 0.6162 0.0000 (  5555 PWs)   bands (ev):

   -46.6866 -46.6838 -34.5045 -34.5039 -23.0320 -23.0241 -22.9991 -22.9367
   -22.8807 -22.8605  -8.9797  -8.7777  -8.6227  -8.2547  -8.2373  -8.1394
     3.0588   3.1885   3.2813   3.4918   3.9308   4.2012   4.5136   4.7659
     5.0828   5.2976   5.7191   5.9326   6.5232   6.7481   6.8149   6.9571
     7.0052   7.2360

     occupation numbers 
     1.0000   1.0000   1.0000   1.0000   1.0000   1.0000   1.0000   1.0000
     1.0000   1.0000   1.0000   1.0000   1.0000   1.0000   1.0000   1.0000
     1.0000   1.0000   1.0000   1.0000   1.0000   1.0000   1.0000   1.0000
     1.0000   1.0000   1.0000   1.0000   1.0000   1.0000   1.0000   1.0000
     1.0000   1.0000

          k =-0.0000 0.4108 0.0661 (  5554 PWs)   bands (ev):

   -46.6900 -46.6804 -34.5051 -34.5032 -23.0613 -23.0314 -22.9799 -22.9276
   -22.9053 -22.8225  -9.2947  -8.8347  -8.5382  -8.4160  -7.9819  -7.8968
     2.8473   2.9786   3.0686   3.6765   3.7073   3.9298   4.5444   4.8903
     5.1494   5.8937   6.1054   6.3116   6.4391   6.5417   6.7588   6.9798
     7.0793   7.2587

     occupation numbers 
     1.0000   1.0000   1.0000   1.0000   1.0000   1.0000   1.0000   1.0000
     1.0000   1.0000   1.0000   1.0000   1.0000   1.0000   1.0000   1.0000
     1.0000   1.0000   1.0000   1.0000   1.0000   1.0000   1.0000   1.0000
     1.0000   1.0000   1.0000   1.0000   1.0000   1.0000   1.0000   1.0000
     1.0000   1.0000

          k =-0.1779-0.1027 0.3303 (  5544 PWs)   bands (ev):

   -46.6900 -46.6805 -34.5050 -34.5032 -23.0608 -23.0288 -22.9780 -22.9290
   -22.9048 -22.8237  -9.3199  -8.8158  -8.5297  -8.4538  -7.9834  -7.8868
     2.9096   2.9982   3.3736   3.6627   3.7094   4.0066   4.5753   4.9096
     5.0198   5.6220   5.8454   6.2959   6.3465   6.5082   6.6283   6.9532
     7.1371   7.2679

     occupation numbers 
     1.0000   1.0000   1.0000   1.0000   1.0000   1.0000   1.0000   1.0000
     1.0000   1.0000   1.0000   1.0000   1.0000   1.0000   1.0000   1.0000
     1.0000   1.0000   1.0000   1.0000   1.0000   1.0000   1.0000   1.0000
     1.0000   1.0000   1.0000   1.0000   1.0000   1.0000   1.0000   1.0000
     1.0000   1.0000

          k =-0.1779 0.9244 0.0000 (  5562 PWs)   bands (ev):

   -46.6880 -46.6825 -34.5047 -34.5036 -23.0666 -23.0235 -23.0043 -22.9221
   -22.8835 -22.8288  -9.1853  -8.7405  -8.7064  -8.2747  -8.1682  -7.9118
     2.7692   3.0792   3.3463   3.7746   3.8380   4.2171   4.4220   4.8959
     5.1543   5.4820   5.9122   6.0867   6.3030   6.4817   6.6690   6.8828
     7.0251   7.1608

     occupation numbers 
     1.0000   1.0000   1.0000   1.0000   1.0000   1.0000   1.0000   1.0000
     1.0000   1.0000   1.0000   1.0000   1.0000   1.0000   1.0000   1.0000
     1.0000   1.0000   1.0000   1.0000   1.0000   1.0000   1.0000   1.0000
     1.0000   1.0000   1.0000   1.0000   1.0000   1.0000   1.0000   1.0000
     1.0000   1.0000

          k =-0.1779 0.7189 0.0661 (  5561 PWs)   bands (ev):

   -46.6852 -46.6852 -34.5042 -34.5042 -23.0570 -23.0557 -22.9637 -22.9617
   -22.8471 -22.8464  -8.9877  -8.9723  -8.5190  -8.4171  -8.0494  -8.0302
     2.7892   2.9080   3.3342   3.5943   4.0632   4.4507   4.4819   4.7810
     5.1181   5.5104   5.9947   6.1023   6.2003   6.4788   6.6761   6.8476
     7.0299   7.1519

     occupation numbers 
     1.0000   1.0000   1.0000   1.0000   1.0000   1.0000   1.0000   1.0000
     1.0000   1.0000   1.0000   1.0000   1.0000   1.0000   1.0000   1.0000
     1.0000   1.0000   1.0000   1.0000   1.0000   1.0000   1.0000   1.0000
     1.0000   1.0000   1.0000   1.0000   1.0000   1.0000   1.0000   1.0000
     1.0000   1.0000

          k =-0.1779 0.5135 0.1321 (  5573 PWs)   bands (ev):

   -46.6880 -46.6825 -34.5047 -34.5036 -23.0666 -23.0249 -23.0064 -22.9221
   -22.8825 -22.8282  -9.1696  -8.7421  -8.6949  -8.2755  -8.1785  -7.9060
     2.7298   3.0839   3.2012   3.5034   3.8568   4.2636   4.4322   5.0254
     5.1827   5.7150   5.8467   6.1589   6.4315   6.6086   6.6910   6.8101
     7.0196   7.2391

     occupation numbers 
     1.0000   1.0000   1.0000   1.0000   1.0000   1.0000   1.0000   1.0000
     1.0000   1.0000   1.0000   1.0000   1.0000   1.0000   1.0000   1.0000
     1.0000   1.0000   1.0000   1.0000   1.0000   1.0000   1.0000   1.0000
     1.0000   1.0000   1.0000   1.0000   1.0000   1.0000   1.0000   1.0000
     1.0000   1.0000

          k = 0.7116 0.4108-0.3303 (  5563 PWs)   bands (ev):

   -46.6876 -46.6828 -34.5047 -34.5037 -23.0663 -23.0579 -23.0263 -22.9012
   -22.8497 -22.8264  -9.1867  -8.8953  -8.7736  -8.0954  -8.0352  -7.9583
     2.8571   2.9131   2.9591   3.3330   4.1889   4.3621   4.7461   5.0334
     5.5053   5.6057   5.9529   5.9793   6.2856   6.3664   6.5664   6.6660
     6.8357   7.1949

     occupation numbers 
     1.0000   1.0000   1.0000   1.0000   1.0000   1.0000   1.0000   1.0000
     1.0000   1.0000   1.0000   1.0000   1.0000   1.0000   1.0000   1.0000
     1.0000   1.0000   1.0000   1.0000   1.0000   1.0000   1.0000   1.0000
     1.0000   1.0000   1.0000   1.0000   1.0000   1.0000   1.0000   1.0000
     1.0000   1.0000

          k = 0.7116 0.2054-0.2642 (  5565 PWs)   bands (ev):

   -46.6866 -46.6838 -34.5045 -34.5039 -23.0707 -23.0687 -23.0044 -22.9204
   -22.8364 -22.8290  -9.1148  -8.9762  -8.6876  -8.2131  -8.0016  -7.9420
     2.7090   2.7379   3.1018   3.6094   3.8928   4.6370   4.8017   4.9828
     5.4602   5.5983   5.8264   5.9596   6.2277   6.3899   6.6674   6.7529
     6.8879   7.1821

     occupation numbers 
     1.0000   1.0000   1.0000   1.0000   1.0000   1.0000   1.0000   1.0000
     1.0000   1.0000   1.0000   1.0000   1.0000   1.0000   1.0000   1.0000
     1.0000   1.0000   1.0000   1.0000   1.0000   1.0000   1.0000   1.0000
     1.0000   1.0000   1.0000   1.0000   1.0000   1.0000   1.0000   1.0000
     1.0000   1.0000

          k = 0.7116-0.0000-0.1982 (  5564 PWs)   bands (ev):

   -46.6852 -46.6852 -34.5042 -34.5042 -23.0565 -23.0565 -22.9632 -22.9632
   -22.8464 -22.8464  -8.9754  -8.9754  -8.4725  -8.4725  -8.0365  -8.0365
     2.8025   2.8025   3.4792   3.4792   4.1932   4.1932   4.6503   4.6503
     5.3044   5.3044   6.0882   6.0882   6.4070   6.4070   6.7700   6.7700
     7.1257   7.1257

     occupation numbers 
     1.0000   1.0000   1.0000   1.0000   1.0000   1.0000   1.0000   1.0000
     1.0000   1.0000   1.0000   1.0000   1.0000   1.0000   1.0000   1.0000
     1.0000   1.0000   1.0000   1.0000   1.0000   1.0000   1.0000   1.0000
     1.0000   1.0000   1.0000   1.0000   1.0000   1.0000   1.0000   1.0000
     1.0000   1.0000

          k = 0.5337 0.3081-0.1982 (  5572 PWs)   bands (ev):

   -46.6876 -46.6828 -34.5047 -34.5037 -23.0665 -23.0586 -23.0272 -22.9014
   -22.8494 -22.8260  -9.1751  -8.8900  -8.7784  -8.0983  -8.0260  -7.9631
     2.7846   2.9072   2.9605   3.1948   4.1543   4.4684   4.7685   5.0250
     5.4407   5.5778   6.0312   6.2237   6.3319   6.3532   6.6345   6.6471
     6.8334   7.2162

     occupation numbers 
     1.0000   1.0000   1.0000   1.0000   1.0000   1.0000   1.0000   1.0000
     1.0000   1.0000   1.0000   1.0000   1.0000   1.0000   1.0000   1.0000
     1.0000   1.0000   1.0000   1.0000   1.0000   1.0000   1.0000   1.0000
     1.0000   1.0000   1.0000   1.0000   1.0000   1.0000   1.0000   1.0000
     1.0000   1.0000

          k = 0.0000 0.0000 0.3963 (  5563 PWs)   bands (ev):

   -46.6894 -46.6811 -34.5049 -34.5033 -23.0256 -23.0256 -22.9469 -22.9407
   -22.9407 -22.8466  -9.2229  -8.6545  -8.6545  -8.3965  -8.0594  -8.0594
     3.2116   3.2116   3.4942   3.8323   3.8323   4.4472   4.4472   4.4492
     4.5087   5.4565   5.4565   5.7972   6.4239   6.8075   6.8075   6.8714
     7.2481   7.2481

     occupation numbers 
     1.0000   1.0000   1.0000   1.0000   1.0000   1.0000   1.0000   1.0000
     1.0000   1.0000   1.0000   1.0000   1.0000   1.0000   1.0000   1.0000
     1.0000   1.0000   1.0000   1.0000   1.0000   1.0000   1.0000   1.0000
     1.0000   1.0000   1.0000   1.0000   1.0000   1.0000   1.0000   1.0000
     1.0000   1.0000

          k =-0.0000 1.0271 0.0661 (  5546 PWs)   bands (ev):

   -46.6876 -46.6828 -34.5046 -34.5037 -23.0520 -22.9883 -22.9793 -22.9534
   -22.9109 -22.8447  -9.1218  -8.6389  -8.5665  -8.4237  -8.3149  -7.9809
     3.0066   3.3836   3.6253   3.8919   3.8954   4.1876   4.3974   4.7195
     4.8603   4.8787   5.5160   6.0290   6.4030   6.4422   6.8795   6.9972
     7.0716   7.1229

     occupation numbers 
     1.0000   1.0000   1.0000   1.0000   1.0000   1.0000   1.0000   1.0000
     1.0000   1.0000   1.0000   1.0000   1.0000   1.0000   1.0000   1.0000
     1.0000   1.0000   1.0000   1.0000   1.0000   1.0000   1.0000   1.0000
     1.0000   1.0000   1.0000   1.0000   1.0000   1.0000   1.0000   1.0000
     1.0000   1.0000

          k =-0.0000 0.8217 0.1321 (  5565 PWs)   bands (ev):

   -46.6852 -46.6852 -34.5042 -34.5042 -23.0681 -23.0343 -22.9945 -22.9339
   -22.8629 -22.8364  -9.0317  -8.9327  -8.5947  -8.2808  -8.1773  -7.9718
     2.7560   3.1868   3.2562   3.7155   4.0248   4.0475   4.7786   4.8720
     5.2727   5.4060   5.8756   5.8777   6.1593   6.4746   6.7196   6.7463
     6.9163   7.2047

     occupation numbers 
     1.0000   1.0000   1.0000   1.0000   1.0000   1.0000   1.0000   1.0000
     1.0000   1.0000   1.0000   1.0000   1.0000   1.0000   1.0000   1.0000
     1.0000   1.0000   1.0000   1.0000   1.0000   1.0000   1.0000   1.0000
     1.0000   1.0000   1.0000   1.0000   1.0000   1.0000   1.0000   1.0000
     1.0000   1.0000

          k = 0.8895 0.5135-0.2642 (  5562 PWs)   bands (ev):

   -46.6866 -46.6839 -34.5044 -34.5039 -23.0312 -23.0213 -22.9957 -22.9360
   -22.8827 -22.8621  -9.0192  -8.8060  -8.6022  -8.2544  -8.2402  -8.1292
     3.2831   3.3218   3.3997   3.9098   4.0134   4.1373   4.3081   4.6098
     4.9837   5.1681   5.5077   5.6818   6.4780   6.5624   6.7397   6.9180
     6.9583   7.1831

     occupation numbers 
     1.0000   1.0000   1.0000   1.0000   1.0000   1.0000   1.0000   1.0000
     1.0000   1.0000   1.0000   1.0000   1.0000   1.0000   1.0000   1.0000
     1.0000   1.0000   1.0000   1.0000   1.0000   1.0000   1.0000   1.0000
     1.0000   1.0000   1.0000   1.0000   1.0000   1.0000   1.0000   1.0000
     1.0000   1.0000

          k = 0.8895 0.3081-0.1982 (  5556 PWs)   bands (ev):

   -46.6852 -46.6852 -34.5042 -34.5042 -23.0554 -23.0554 -22.9619 -22.9619
   -22.8474 -22.8474  -8.9955  -8.9955  -8.4636  -8.4636  -8.0387  -8.0387
     2.9469   2.9469   3.4648   3.4648   4.3211   4.3211   4.5663   4.5663
     5.3439   5.3439   5.8839   5.8839   6.3083   6.3083   6.6840   6.6840
     7.0771   7.0771

     occupation numbers 
     1.0000   1.0000   1.0000   1.0000   1.0000   1.0000   1.0000   1.0000
     1.0000   1.0000   1.0000   1.0000   1.0000   1.0000   1.0000   1.0000
     1.0000   1.0000   1.0000   1.0000   1.0000   1.0000   1.0000   1.0000
     1.0000   1.0000   1.0000   1.0000   1.0000   1.0000   1.0000   1.0000
     1.0000   1.0000

          k =-0.0000 0.0000-0.5945 (  5536 PWs)   bands (ev):

   -46.6852 -46.6852 -34.5041 -34.5041 -22.9836 -22.9836 -22.9836 -22.9836
   -22.8976 -22.8976  -8.8214  -8.8214  -8.3652  -8.3652  -8.3652  -8.3652
     3.7636   3.7636   3.7636   3.7636   3.9797   3.9797   4.6176   4.6176
     4.6176   4.6176   5.0568   5.0568   6.7004   6.7004   7.0296   7.0296
     7.0296   7.0296

     occupation numbers 
     1.0000   1.0000   1.0000   1.0000   1.0000   1.0000   1.0000   1.0000
     1.0000   1.0000   1.0000   1.0000   1.0000   1.0000   1.0000   1.0000
     1.0000   1.0000   1.0000   1.0000   1.0000   1.0000   1.0000   1.0000
     1.0000   1.0000   1.0000   1.0000   1.0000   1.0000   1.0000   1.0000
     1.0000   1.0000

     highest occupied level (ev):     7.3435

!    total energy              =    -936.83954531 Ry
     estimated scf accuracy    <          4.7E-13 Ry

     The total energy is the sum of the following terms:
     one-electron contribution =    -138.80533138 Ry
     hartree contribution      =     104.40601321 Ry
     xc contribution           =    -108.31508024 Ry
     ewald contribution        =    -330.66979833 Ry
     one-center paw contrib.   =    -463.45534857 Ry
      -> PAW hartree energy AE =     294.39740118 Ry
      -> PAW hartree energy PS =    -292.87388514 Ry
      -> PAW xc energy AE      =    -560.82255165 Ry
      -> PAW xc energy PS      =      95.84368704 Ry
      -> total E_H with PAW    =     105.92952924 Ry
      -> total E_XC with PAW   =    -573.29394484 Ry

     convergence has been achieved in  22 iterations

     Forces acting on atoms (cartesian axes, Ry/au):

     atom    1 type  1   force =     0.00000000   -0.00000000    0.00026015
     atom    2 type  1   force =     0.00000000    0.00000000    0.00026015
     atom    3 type  2   force =    -0.00150916    0.00143655   -0.00067218
     atom    4 type  2   force =    -0.00048951   -0.00202524   -0.00067218
     atom    5 type  2   force =     0.00199867    0.00058869   -0.00067218
     atom    6 type  2   force =     0.00048951   -0.00202524   -0.00067218
     atom    7 type  2   force =     0.00150916    0.00143655   -0.00067218
     atom    8 type  2   force =    -0.00199867    0.00058869   -0.00067218
     atom    9 type  3   force =     0.00000000    0.00000000    0.00175638
     atom   10 type  3   force =     0.00000000    0.00000000    0.00175638
     The non-local contrib.  to forces
     atom    1 type  1   force =     0.00000000   -0.00000000    0.01157217
     atom    2 type  1   force =     0.00000000   -0.00000000    0.01157217
     atom    3 type  2   force =     0.31804497   -0.17703282   -0.04495819
     atom    4 type  2   force =    -0.00570756    0.36395143   -0.04495819
     atom    5 type  2   force =    -0.31233741   -0.18691861   -0.04495819
     atom    6 type  2   force =     0.00570756    0.36395143   -0.04495819
     atom    7 type  2   force =    -0.31804497   -0.17703282   -0.04495819
     atom    8 type  2   force =     0.31233741   -0.18691861   -0.04495819
     atom    9 type  3   force =     0.00000000   -0.00000000   -0.01477182
     atom   10 type  3   force =    -0.00000000   -0.00000000   -0.01477182
     The ionic contribution  to forces
     atom    1 type  1   force =     0.00000000   -0.00000000   -1.09450642
     atom    2 type  1   force =    -0.00000000    0.00000000   -1.09450642
     atom    3 type  2   force =    -3.67590191    2.72991083    0.39547551
     atom    4 type  2   force =    -0.52622117   -4.54837985    0.39547551
     atom    5 type  2   force =     4.20212309    1.81846902    0.39547551
     atom    6 type  2   force =     0.52622117   -4.54837986    0.39547551
     atom    7 type  2   force =     3.67590191    2.72991083    0.39547551
     atom    8 type  2   force =    -4.20212309    1.81846902    0.39547551
     atom    9 type  3   force =     0.00000000   -0.00000000   -0.09192010
     atom   10 type  3   force =     0.00000000    0.00000000   -0.09192010
     The local contribution  to forces
     atom    1 type  1   force =    -0.00000000   -0.00000000    1.08319447
     atom    2 type  1   force =    -0.00000000    0.00000000    1.08319447
     atom    3 type  2   force =     3.35752158   -2.55292340   -0.35108322
     atom    4 type  2   force =     0.53213572    4.18416069   -0.35108322
     atom    5 type  2   force =    -3.88965731   -1.63123729   -0.35108322
     atom    6 type  2   force =    -0.53213573    4.18416069   -0.35108322
     atom    7 type  2   force =    -3.35752158   -2.55292340   -0.35108322
     atom    8 type  2   force =     3.88965731   -1.63123729   -0.35108322
     atom    9 type  3   force =    -0.00000000    0.00000000    0.11317695
     atom   10 type  3   force =    -0.00000000    0.00000000    0.11317695
     The core correction contribution to forces
     atom    1 type  1   force =     0.00000000    0.00000000    0.00000000
     atom    2 type  1   force =     0.00000000    0.00000000    0.00000000
     atom    3 type  2   force =    -0.00117354    0.00148185   -0.00010621
     atom    4 type  2   force =    -0.00069655   -0.00175724   -0.00010621
     atom    5 type  2   force =     0.00187009    0.00027539   -0.00010621
     atom    6 type  2   force =     0.00069655   -0.00175724   -0.00010621
     atom    7 type  2   force =     0.00117354    0.00148185   -0.00010621
     atom    8 type  2   force =    -0.00187009    0.00027539   -0.00010621
     atom    9 type  3   force =    -0.00000000    0.00000000   -0.00472849
     atom   10 type  3   force =     0.00000000   -0.00000000   -0.00472849
     The Hubbard contrib.    to forces
     atom    1 type  1   force =     0.00000000    0.00000000    0.00000000
     atom    2 type  1   force =     0.00000000    0.00000000    0.00000000
     atom    3 type  2   force =     0.00000000    0.00000000    0.00000000
     atom    4 type  2   force =     0.00000000    0.00000000    0.00000000
     atom    5 type  2   force =     0.00000000    0.00000000    0.00000000
     atom    6 type  2   force =     0.00000000    0.00000000    0.00000000
     atom    7 type  2   force =     0.00000000    0.00000000    0.00000000
     atom    8 type  2   force =     0.00000000    0.00000000    0.00000000
     atom    9 type  3   force =     0.00000000    0.00000000    0.00000000
     atom   10 type  3   force =     0.00000000    0.00000000    0.00000000
     The SCF correction term to forces
     atom    1 type  1   force =    -0.00000000   -0.00000000   -0.00000001
     atom    2 type  1   force =     0.00000000   -0.00000000   -0.00000001
     atom    3 type  2   force =    -0.00000026    0.00000009   -0.00000001
     atom    4 type  2   force =     0.00000005   -0.00000027   -0.00000001
     atom    5 type  2   force =     0.00000021    0.00000018   -0.00000001
     atom    6 type  2   force =    -0.00000005   -0.00000027   -0.00000001
     atom    7 type  2   force =     0.00000026    0.00000009   -0.00000001
     atom    8 type  2   force =    -0.00000021    0.00000018   -0.00000001
     atom    9 type  3   force =     0.00000000    0.00000000   -0.00000011
     atom   10 type  3   force =     0.00000000    0.00000000   -0.00000011

     Total force =     0.005921     Total SCF correction =     0.000001


     Computing stress (Cartesian axis) and pressure

          total   stress  (Ry/bohr**3)                   (kbar)     P=        5.40
   0.00004193   0.00000000   0.00000000            6.17        0.00        0.00
   0.00000000   0.00004193   0.00000000            0.00        6.17        0.00
  -0.00000000   0.00000000   0.00002626           -0.00        0.00        3.86

     kinetic stress (kbar)  26788.09      0.00      0.00
                               -0.00  26788.09      0.00
                               -0.00      0.00  26742.60

     local   stress (kbar) -12952.82     -0.00     -0.00
                               -0.00 -12952.82     -0.00
                               -0.00     -0.00 -11031.08

     nonloc. stress (kbar)   6975.14      0.00      0.00
                                0.00   6975.14      0.00
                               -0.00      0.00   7020.13

     hartree stress (kbar)   7375.76      0.00      0.00
                                0.00   7375.76      0.00
                                0.00      0.00   6925.36

     exc-cor stress (kbar)   1079.49      0.00     -0.00
                                0.00   1079.49      0.00
                               -0.00      0.00   1076.37

     corecor stress (kbar)  -6864.62     -0.00      0.00
                               -0.00  -6864.62     -0.00
                                0.00     -0.00  -6865.29

     ewald   stress (kbar) -22394.87      0.00      0.00
                                0.00 -22394.87      0.00
                                0.00      0.00 -23864.23

     hubbard stress (kbar)      0.00      0.00      0.00
                                0.00      0.00      0.00
                                0.00      0.00      0.00

     DFT-D   stress (kbar)      0.00      0.00      0.00
                                0.00      0.00      0.00
                                0.00      0.00      0.00

     XDM     stress (kbar)      0.00      0.00      0.00
                                0.00      0.00      0.00
                                0.00      0.00      0.00

     dft-nl  stress (kbar)      0.00      0.00      0.00
                                0.00      0.00      0.00
                                0.00      0.00      0.00

     TS-vdW  stress (kbar)      0.00      0.00      0.00
                                0.00      0.00      0.00
                                0.00      0.00      0.00

     MDB     stress (kbar)      0.00      0.00      0.00
                                0.00      0.00      0.00
                                0.00      0.00      0.00

     3D-RISM stress (kbar)      0.00      0.00      0.00
                                0.00      0.00      0.00
                                0.00      0.00      0.00

     Message from routine punch:
     Nothing written, as per user request (disk_io='none')
 
     init_run     :      0.55s CPU      0.79s WALL (       1 calls)
     electrons    :     18.09s CPU     18.53s WALL (       1 calls)
     forces       :      0.08s CPU      0.08s WALL (       1 calls)
     stress       :      0.16s CPU      0.17s WALL (       1 calls)

     Called by init_run:
     wfcinit      :      0.18s CPU      0.29s WALL (       1 calls)
     wfcinit:atom :      0.02s CPU      0.03s WALL (      32 calls)
     wfcinit:wfcr :      0.12s CPU      0.21s WALL (      32 calls)
     potinit      :      0.09s CPU      0.12s WALL (       1 calls)
     hinit0       :      0.20s CPU      0.23s WALL (       1 calls)

     Called by electrons:
     c_bands      :     14.42s CPU     14.76s WALL (      22 calls)
     sum_band     :      1.54s CPU      1.56s WALL (      22 calls)
     v_of_rho     :      0.10s CPU      0.11s WALL (      23 calls)
     v_h          :      0.04s CPU      0.05s WALL (      23 calls)
     v_xc         :      0.06s CPU      0.06s WALL (      25 calls)
     newd         :      0.22s CPU      0.25s WALL (      23 calls)
     PAW_pot      :      1.64s CPU      1.70s WALL (      23 calls)
     mix_rho      :      0.16s CPU      0.17s WALL (      22 calls)

     Called by c_bands:
     init_us_2    :      0.48s CPU      0.49s WALL (    1504 calls)
     cegterg      :     13.28s CPU     13.58s WALL (     704 calls)

     Called by sum_band:
     sum_band:wei :      0.00s CPU      0.00s WALL (      22 calls)
     sum_band:loo :      1.20s CPU      1.21s WALL (      22 calls)
     sum_band:buf :      0.24s CPU      0.24s WALL (     704 calls)
     sum_band:ini :      0.22s CPU      0.23s WALL (     704 calls)
     sum_band:cal :      0.01s CPU      0.01s WALL (     704 calls)
     sum_band:bec :      0.27s CPU      0.27s WALL (     704 calls)
     addusdens    :      0.23s CPU      0.23s WALL (      22 calls)
                                        0.23s GPU  (      22 calls)
     addusd:skk   :      0.01s CPU      0.01s WALL (      66 calls)
                                        0.01s GPU  (      66 calls)

     Called by *egterg:
     cdiaghg      :      5.94s CPU      6.08s WALL (    4905 calls)
                                        6.03s GPU  (    4905 calls)
     cegterg:over :      0.39s CPU      0.39s WALL (    4201 calls)
     cegterg:upda :      1.31s CPU      1.32s WALL (    4201 calls)
     cegterg:last :      0.18s CPU      0.18s WALL (    2784 calls)
     h_psi        :      3.56s CPU      3.84s WALL (    4937 calls)
     s_psi        :      1.28s CPU      1.30s WALL (    4937 calls)
     g_psi        :      0.08s CPU      0.08s WALL (    4201 calls)

     Called by h_psi:
     h_psi:calbec :      0.09s CPU      0.12s WALL (    4937 calls)
     vloc_psi     :      2.26s CPU      2.54s WALL (    4937 calls)
                                        2.49s GPU  (    4937 calls)
     add_vuspsi   :      1.08s CPU      1.10s WALL (    4937 calls)

     General routines
     calbec       :      0.10s CPU      0.13s WALL (    6185 calls)
     fft          :      0.03s CPU      0.07s WALL (     322 calls)
                                        0.03s GPU  (     299 calls)
     ffts         :      0.01s CPU      0.02s WALL (      45 calls)
                                        0.00s GPU  (      22 calls)
     fftw         :      0.16s CPU      1.55s WALL (   21014 calls)
                                        1.34s GPU  (   21014 calls)
     interpolate  :      0.07s CPU      0.08s WALL (      23 calls)
 
     Parallel routines

     PAW routines
     PAW_pot      :      1.64s CPU      1.70s WALL (      23 calls)
     PAW_symme    :      0.00s CPU      0.00s WALL (      45 calls)
 
     PWSCF        :     19.22s CPU     19.93s WALL

 
   This run was terminated on:  17: 6: 0  29Nov2025            

=------------------------------------------------------------------------------=
   JOB DONE.
=------------------------------------------------------------------------------=
