&CONTROL
   calculation      = 'scf'
   verbosity        = 'medium'
   tstress          = .true.
   tprnfor          = .true.
   disk_io          = 'none'
   pseudo_dir       = '/home/qhossain/SSSP_1.3.0_PBEsol_efficiency'
/
&SYSTEM
   ecutwfc          = 60
   ecutrho          = 400
   nosym            = .false.
   occupations      = 'fixed'
   ntyp             = 3
   nat              = 10
   ibrav            = 0
/
&ELECTRONS
   conv_thr         = 1e-12
/
&IONS
/
&CELL
/
&FCP
/
&RISM
/
ATOMIC_SPECIES
Li 6.94 li_pbesol_v1.4.uspp.F.UPF
O 15.999 O.pbesol-n-kjpaw_psl.0.1.UPF
Nb 92.90637 Nb.pbesol-spn-kjpaw_psl.0.3.0.UPF

K_POINTS automatic
6 6 6  0 0 0

CELL_PARAMETERS angstrom
2.56525382601637 1.48104998699025 4.60583677699959
-2.56525382601637 1.48104998699025 4.60583677699959
0.00000000000000 -2.96209997398056 4.60583677699959

ATOMIC_POSITIONS angstrom
Li 0.0000000000 -0.0000000000 10.8250375640  
Li 0.0000000000 -0.0000000000 3.9162823985  
O -1.6442789437 -0.2097091526 7.8221481071  
O 1.0037529255 -1.3191327599 7.8221481071  
O 0.6405260183 1.5288419125 7.8221481071  
O 1.5615009006 0.1619172271 5.5192297186  
O -0.9209748823 1.2713408344 5.5192297186  
O -0.6405260183 -1.4332580615 5.5192297186  
Nb -0.0000000000 -0.0000000000 6.9236245403  
Nb 0.0000000000 -0.0000000000 0.0148693748  

