
     Program PWSCF v.7.5 starts on 29Nov2025 at 17: 5:36 

     This program is part of the open-source Quantum ESPRESSO suite
     for quantum simulation of materials; please cite
         "P. Giannozzi et al., J. Phys.:Condens. Matter 21 395502 (2009);
         "P. Giannozzi et al., J. Phys.:Condens. Matter 29 465901 (2017);
         "P. Giannozzi et al., J. Chem. Phys. 152 154105 (2020);
          URL http://www.quantum-espresso.org", 
     in publications or presentations arising from this work. More details at
     http://www.quantum-espresso.org/quote

     Parallel version (MPI & OpenMP), running on       1 processor cores
     Number of MPI processes:                 1
     Threads/MPI process:                     1

     MPI processes distributed on     1 nodes
     1368820 MiB available memory on the printing compute node when the environment starts
 
     Reading input from espresso.pwi
Warning: card &CELL ignored
Warning: card &FCP ignored
Warning: card &RISM ignored

     Current dimensions of program PWSCF are:
     Max number of different atomic species (ntypx) = 10
     Max number of k-points (npk) =  40000
     Max angular momentum in pseudopotentials (lmaxx) =  4
     file O.pbesol-n-kjpaw_psl.0.1.UPF: wavefunction(s)  2P renormalized
     file Nb.pbesol-spn-kjpaw_psl.0.3.0.UPF: wavefunction(s)  4S 4P renormalized
     Message from routine setup:
     using ibrav=0 with symmetry is DISCOURAGED, use correct ibrav instead
 
     Subspace diagonalization in iterative solution of the eigenvalue problem:
     a serial algorithm will be used

 
     G-vector sticks info
     --------------------
     sticks:   dense  smooth     PW     G-vecs:    dense   smooth      PW
     Sum        2735    1643    481                91081    42367    6755
 
     Using Slab Decomposition
 


     bravais-lattice index     =            0
     lattice parameter (alat)  =      10.2147  a.u.
     unit-cell volume          =     673.6647 (a.u.)^3
     number of atoms/cell      =           10
     number of atomic types    =            3
     number of electrons       =        68.00
     number of Kohn-Sham states=           34
     kinetic-energy cutoff     =      60.0000  Ry
     charge density cutoff     =     400.0000  Ry
     scf convergence threshold =      1.0E-12
     mixing beta               =       0.7000
     number of iterations used =            8  plain     mixing
     Exchange-correlation= SLA  PW   PSX  PSC
                           (   1   4  10   8   0   0   0)

     GPU acceleration is ACTIVE.  1 visible GPUs per MPI rank


     GPU used by master process:

        Device Number: 0
        Device name: NVIDIA B200
        Compute capability : 100
        Ratio of single to double precision performance  : 16
        Memory Clock Rate (KHz): 3996000
        Memory Bus Width (bits): 7680
        Peak Memory Bandwidth (GB/s): ******

     celldm(1)=  10.214693  celldm(2)=   0.000000  celldm(3)=   0.000000
     celldm(4)=   0.000000  celldm(5)=   0.000000  celldm(6)=   0.000000

     crystal axes: (cart. coord. in units of alat)
               a(1) = (   0.465082   0.268515   0.843563 )  
               a(2) = (  -0.465082   0.268515   0.843563 )  
               a(3) = (   0.000000  -0.537031   0.843563 )  

     reciprocal axes: (cart. coord. in units 2 pi/alat)
               b(1) = (  1.075078  0.620697  0.395150 )  
               b(2) = ( -1.075078  0.620697  0.395150 )  
               b(3) = ( -0.000000 -1.241393  0.395150 )  


     PseudoPot. # 1 for Li read from file:
     /home/qhossain/SSSP_1.3.0_PBEsol_efficiency/li_pbesol_v1.4.uspp.F.UPF
     MD5 check sum: aa28d9aeea6a965f2dc95ee9517b3536
     Pseudo is Ultrasoft, Zval =  3.0
     Generated by new atomic code, or converted to UPF format
     Using radial grid of  751 points,  5 beta functions with: 
                l(1) =   0
                l(2) =   0
                l(3) =   0
                l(4) =   1
                l(5) =   1
     Q(r) pseudized with 10 coefficients,  rinner =    1.150   1.150   1.150


     PseudoPot. # 2 for O  read from file:
     /home/qhossain/SSSP_1.3.0_PBEsol_efficiency/O.pbesol-n-kjpaw_psl.0.1.UPF
     MD5 check sum: 81d73d1479e654e5638b0319f0d6c2c7
     Pseudo is Projector augmented-wave + core cor, Zval =  6.0
     Generated using "atomic" code by A. Dal Corso  v.6.0 svn rev. 13079
     Shape of augmentation charge: BESSEL
     Using radial grid of 1095 points,  4 beta functions with: 
                l(1) =   0
                l(2) =   0
                l(3) =   1
                l(4) =   1
     Q(r) pseudized with 0 coefficients 


     PseudoPot. # 3 for Nb read from file:
     /home/qhossain/SSSP_1.3.0_PBEsol_efficiency/Nb.pbesol-spn-kjpaw_psl.0.3.0.UPF
     MD5 check sum: 3501bca1474143575298708b2d32ca28
     Pseudo is Projector augmented-wave + core cor, Zval = 13.0
     Generated using "atomic" code by A. Dal Corso  v.6.0 svn rev. 13079
     Shape of augmentation charge: PSQ
     Using radial grid of 1227 points,  6 beta functions with: 
                l(1) =   0
                l(2) =   0
                l(3) =   1
                l(4) =   1
                l(5) =   2
                l(6) =   2
     Q(r) pseudized with 0 coefficients 


     atomic species   valence    mass     pseudopotential
     Li                3.00     6.94000     Li( 1.00)
     O                 6.00    15.99900     O ( 1.00)
     Nb               13.00    92.90637     Nb( 1.00)

      6 Sym. Ops. (no inversion) found ( 3 have fractional translation)


                                    s                        frac. trans.

      isym =  1     identity                                     

 cryst.   s( 1) = (     1          0          0      )
                  (     0          1          0      )
                  (     0          0          1      )

 cart.    s( 1) = (  1.0000000  0.0000000  0.0000000 )
                  ( -0.0000000  1.0000000  0.0000000 )
                  ( -0.0000000  0.0000000  1.0000000 )


      isym =  2     120 deg rotation - cryst. axis [0,0,1]       

 cryst.   s( 2) = (     0          1          0      )
                  (     0          0          1      )
                  (     1          0          0      )

 cart.    s( 2) = ( -0.5000000 -0.8660254 -0.0000000 )
                  (  0.8660254 -0.5000000 -0.0000000 )
                  ( -0.0000000 -0.0000000  1.0000000 )


      isym =  3     120 deg rotation - cryst. axis [0,0,-1]      

 cryst.   s( 3) = (     0          0          1      )
                  (     1          0          0      )
                  (     0          1          0      )

 cart.    s( 3) = ( -0.5000000  0.8660254  0.0000000 )
                  ( -0.8660254 -0.5000000 -0.0000000 )
                  (  0.0000000 -0.0000000  1.0000000 )


      isym =  4     inv. 180 deg rotation - cart. axis [1,0,0]   

 cryst.   s( 4) = (     0          1          0      )    f =( -0.5000000 )
                  (     1          0          0      )       ( -0.5000000 )
                  (     0          0          1      )       ( -0.5000000 )

 cart.    s( 4) = ( -1.0000000  0.0000000  0.0000000 )    f =( -0.0000000 )
                  (  0.0000000  1.0000000  0.0000000 )       ( -0.0000000 )
                  (  0.0000000  0.0000000  1.0000000 )       ( -1.2653438 )


      isym =  5     inv. 180 deg rotation - cryst. axis [0,1,0]  

 cryst.   s( 5) = (     1          0          0      )    f =( -0.5000000 )
                  (     0          0          1      )       ( -0.5000000 )
                  (     0          1          0      )       ( -0.5000000 )

 cart.    s( 5) = (  0.5000000  0.8660254  0.0000000 )    f =(  0.0000000 )
                  (  0.8660254 -0.5000000 -0.0000000 )       ( -0.0000000 )
                  ( -0.0000000 -0.0000000  1.0000000 )       ( -1.2653438 )


      isym =  6     inv. 180 deg rotation - cryst. axis [1,1,0]  

 cryst.   s( 6) = (     0          0          1      )    f =( -0.5000000 )
                  (     0          1          0      )       ( -0.5000000 )
                  (     1          0          0      )       ( -0.5000000 )

 cart.    s( 6) = (  0.5000000 -0.8660254 -0.0000000 )    f =( -0.0000000 )
                  ( -0.8660254 -0.5000000 -0.0000000 )       ( -0.0000000 )
                  (  0.0000000 -0.0000000  1.0000000 )       ( -1.2653438 )


   Cartesian axes

     site n.     atom                  positions (alat units)
         1        Li     tau(   1) = (  -0.0000000  -0.0000000   1.9826139  )
         2        Li     tau(   2) = (   0.0000000  -0.0000000   0.7172701  )
         3        O      tau(   3) = (  -0.2981090  -0.0380204   1.4326324  )
         4        O      tau(   4) = (   0.1819812  -0.2391598   1.4326324  )
         5        O      tau(   5) = (   0.1161279   0.2771802   1.4326324  )
         6        O      tau(   6) = (   0.2831013   0.0293557   1.0108511  )
         7        O      tau(   7) = (  -0.1669734   0.2304951   1.0108511  )
         8        O      tau(   8) = (  -0.1161279  -0.2598508   1.0108511  )
         9        Nb     tau(   9) = (  -0.0000000  -0.0000000   1.2680671  )
        10        Nb     tau(  10) = (  -0.0000000  -0.0000000   0.0027233  )

   Crystallographic axes

     site n.     atom                  positions (cryst. coord.)
         1        Li     tau(   1) = (  0.7834289  0.7834289  0.7834289  )
         2        Li     tau(   2) = (  0.2834289  0.2834289  0.2834289  )
         3        O      tau(   3) = (  0.2220144  0.8629954  0.6133023  )
         4        O      tau(   4) = (  0.6133023  0.2220144  0.8629954  )
         5        O      tau(   5) = (  0.8629954  0.6133023  0.2220144  )
         6        O      tau(   6) = (  0.7220144  0.1133023  0.3629954  )
         7        O      tau(   7) = (  0.3629954  0.7220144  0.1133023  )
         8        O      tau(   8) = (  0.1133023  0.3629954  0.7220144  )
         9        Nb     tau(   9) = (  0.5010761  0.5010761  0.5010761  )
        10        Nb     tau(  10) = (  0.0010761  0.0010761  0.0010761  )

     number of k points=    32
                       cart. coord. in units 2pi/alat
        k(    1) = (   0.0000000   0.0000000   0.0000000), wk =   0.0092593
        k(    2) = (  -0.0000000  -0.2068989   0.0658583), wk =   0.0555556
        k(    3) = (  -0.0000000  -0.4137978   0.1317165), wk =   0.0555556
        k(    4) = (   0.0000000   0.6206967  -0.1975748), wk =   0.0277778
        k(    5) = (  -0.1791797  -0.1034494   0.1317165), wk =   0.0555556
        k(    6) = (  -0.1791797  -0.3103483   0.1975748), wk =   0.1111111
        k(    7) = (  -0.1791797   0.7241461  -0.1317165), wk =   0.1111111
        k(    8) = (  -0.1791797   0.5172472  -0.0658583), wk =   0.1111111
        k(    9) = (  -0.1791797   0.3103483   0.0000000), wk =   0.0555556
        k(   10) = (  -0.3583594  -0.2068989   0.2634330), wk =   0.0555556
        k(   11) = (  -0.3583594   0.8275956  -0.0658583), wk =   0.1111111
        k(   12) = (  -0.3583594   0.6206967   0.0000000), wk =   0.0555556
        k(   13) = (   0.5375391   0.3103483  -0.3951495), wk =   0.0277778
        k(   14) = (   0.0000000  -0.0000000   0.1975748), wk =   0.0185185
        k(   15) = (   0.0000000  -0.2068989   0.2634330), wk =   0.0555556
        k(   16) = (   0.0000000   0.8275956  -0.0658583), wk =   0.0555556
        k(   17) = (   0.0000000   0.6206967   0.0000000), wk =   0.0555556
        k(   18) = (   0.0000000   0.4137978   0.0658583), wk =   0.0555556
        k(   19) = (  -0.1791797  -0.1034494   0.3292913), wk =   0.0555556
        k(   20) = (  -0.1791797   0.9310450   0.0000000), wk =   0.1111111
        k(   21) = (  -0.1791797   0.7241461   0.0658583), wk =   0.1111111
        k(   22) = (  -0.1791797   0.5172472   0.1317165), wk =   0.1111111
        k(   23) = (   0.7167188   0.4137978  -0.3292913), wk =   0.0555556
        k(   24) = (   0.7167188   0.2068989  -0.2634330), wk =   0.1111111
        k(   25) = (   0.7167188  -0.0000000  -0.1975748), wk =   0.0555556
        k(   26) = (   0.5375391   0.3103483  -0.1975748), wk =   0.0555556
        k(   27) = (   0.0000000  -0.0000000   0.3951495), wk =   0.0185185
        k(   28) = (   0.0000000   1.0344944   0.0658583), wk =   0.0555556
        k(   29) = (   0.0000000   0.8275956   0.1317165), wk =   0.0555556
        k(   30) = (   0.8958985   0.5172472  -0.2634330), wk =   0.0555556
        k(   31) = (   0.8958985   0.3103483  -0.1975748), wk =   0.0555556
        k(   32) = (   0.0000000   0.0000000  -0.5927243), wk =   0.0092593

                       cryst. coord.
        k(    1) = (   0.0000000   0.0000000   0.0000000), wk =   0.0092593
        k(    2) = (   0.0000000   0.0000000   0.1666667), wk =   0.0555556
        k(    3) = (   0.0000000   0.0000000   0.3333333), wk =   0.0555556
        k(    4) = (   0.0000000   0.0000000  -0.5000000), wk =   0.0277778
        k(    5) = (   0.0000000   0.1666667   0.1666667), wk =   0.0555556
        k(    6) = (   0.0000000   0.1666667   0.3333333), wk =   0.1111111
        k(    7) = (  -0.0000000   0.1666667  -0.5000000), wk =   0.1111111
        k(    8) = (   0.0000000   0.1666667  -0.3333333), wk =   0.1111111
        k(    9) = (   0.0000000   0.1666667  -0.1666667), wk =   0.0555556
        k(   10) = (   0.0000000   0.3333333   0.3333333), wk =   0.0555556
        k(   11) = (   0.0000000   0.3333333  -0.5000000), wk =   0.1111111
        k(   12) = (   0.0000000   0.3333333  -0.3333333), wk =   0.0555556
        k(   13) = (  -0.0000000  -0.5000000  -0.5000000), wk =   0.0277778
        k(   14) = (   0.1666667   0.1666667   0.1666667), wk =   0.0185185
        k(   15) = (   0.1666667   0.1666667   0.3333333), wk =   0.0555556
        k(   16) = (   0.1666667   0.1666667  -0.5000000), wk =   0.0555556
        k(   17) = (   0.1666667   0.1666667  -0.3333333), wk =   0.0555556
        k(   18) = (   0.1666667   0.1666667  -0.1666667), wk =   0.0555556
        k(   19) = (   0.1666667   0.3333333   0.3333333), wk =   0.0555556
        k(   20) = (   0.1666667   0.3333333  -0.5000000), wk =   0.1111111
        k(   21) = (   0.1666667   0.3333333  -0.3333333), wk =   0.1111111
        k(   22) = (   0.1666667   0.3333333  -0.1666667), wk =   0.1111111
        k(   23) = (   0.1666667  -0.5000000  -0.5000000), wk =   0.0555556
        k(   24) = (   0.1666667  -0.5000000  -0.3333333), wk =   0.1111111
        k(   25) = (   0.1666667  -0.5000000  -0.1666667), wk =   0.0555556
        k(   26) = (   0.1666667  -0.3333333  -0.3333333), wk =   0.0555556
        k(   27) = (   0.3333333   0.3333333   0.3333333), wk =   0.0185185
        k(   28) = (   0.3333333   0.3333333  -0.5000000), wk =   0.0555556
        k(   29) = (   0.3333333   0.3333333  -0.3333333), wk =   0.0555556
        k(   30) = (   0.3333333  -0.5000000  -0.5000000), wk =   0.0555556
        k(   31) = (   0.3333333  -0.5000000  -0.3333333), wk =   0.0555556
        k(   32) = (  -0.5000000  -0.5000000  -0.5000000), wk =   0.0092593

     Dense  grid:    91081 G-vectors     FFT dimensions: (  72,  72,  72)

     Smooth grid:    42367 G-vectors     FFT dimensions: (  54,  54,  54)

     Dynamical RAM for                 wfc:       2.74 MB

     Dynamical RAM for     wfc (w. buffer):      90.52 MB

     Dynamical RAM for           str. fact:       4.17 MB

     Dynamical RAM for           local pot:       0.00 MB

     Dynamical RAM for          nlocal pot:       8.23 MB

     Dynamical RAM for                qrad:       4.82 MB

     Dynamical RAM for          rho,v,vnew:      12.71 MB

     Dynamical RAM for               rhoin:       4.24 MB

     Dynamical RAM for            rho*nmix:      22.24 MB

     Dynamical RAM for           G-vectors:       5.53 MB

     Dynamical RAM for          h,s,v(r/c):       0.21 MB

     Dynamical RAM for          <psi|beta>:       0.05 MB

     Dynamical RAM for                 psi:       5.49 MB

     Dynamical RAM for                hpsi:       5.49 MB

     Dynamical RAM for                spsi:       5.49 MB

     Dynamical RAM for      wfcinit/wfcrot:       5.51 MB

     Dynamical RAM for           addusdens:     266.84 MB

     Dynamical RAM for          addusforce:     281.46 MB

     Dynamical RAM for         addusstress:     279.35 MB

     Estimated static dynamical RAM per process >     150.01 MB

     Estimated max dynamical RAM per process >     453.70 MB

     Check: negative core charge=   -0.000005

     Initial potential from superposition of free atoms

     starting charge      67.0945, renormalised to      68.0000
     Starting wfcs are   54 randomized atomic wfcs
     Checking if some PAW data can be deallocated... 

     total cpu time spent up to now is        1.1 secs

     per-process dynamical memory:   551.0 Mb

     Self-consistent Calculation
[tb_dev] Currently allocated     1.86E+00 Mbytes, locked:    0 /   3
[tb_pin] Currently allocated     0.00E+00 Mbytes, locked:    0 /   0

     iteration #  1     ecut=    60.00 Ry     beta= 0.70
     Davidson diagonalization with overlap

---- Real-time Memory Report at c_bands before calling an iterative solver
           979 MiB given to the printing process from OS
           538 MiB allocation reported by mallinfo(arena+hblkhd)
       1367903 MiB available memory on the node where the printing process lives
     GPU memory used/free/total (MiB): 2249 / 180392 / 182642
------------------
     ethr =  1.00E-02,  avg # of iterations =  1.5

     total cpu time spent up to now is        1.6 secs

     total energy              =    -934.58872729 Ry
     estimated scf accuracy    <       4.19271922 Ry
[tb_dev] Currently allocated     0.00E+00 Mbytes, locked:    0 /   0
[tb_pin] Currently allocated     0.00E+00 Mbytes, locked:    0 /   0

     iteration #  2     ecut=    60.00 Ry     beta= 0.70
     Davidson diagonalization with overlap

---- Real-time Memory Report at c_bands before calling an iterative solver
          1029 MiB given to the printing process from OS
           611 MiB allocation reported by mallinfo(arena+hblkhd)
       1367723 MiB available memory on the node where the printing process lives
     GPU memory used/free/total (MiB): 2249 / 180392 / 182642
------------------
     ethr =  6.17E-03,  avg # of iterations =  7.8

     total cpu time spent up to now is        2.7 secs

     total energy              =    -934.59644535 Ry
     estimated scf accuracy    <      11.58490283 Ry
[tb_dev] Currently allocated     0.00E+00 Mbytes, locked:    0 /   0
[tb_pin] Currently allocated     0.00E+00 Mbytes, locked:    0 /   0

     iteration #  3     ecut=    60.00 Ry     beta= 0.70
     Davidson diagonalization with overlap

---- Real-time Memory Report at c_bands before calling an iterative solver
          1036 MiB given to the printing process from OS
           615 MiB allocation reported by mallinfo(arena+hblkhd)
       1367458 MiB available memory on the node where the printing process lives
     GPU memory used/free/total (MiB): 2251 / 180390 / 182642
------------------
     ethr =  6.17E-03,  avg # of iterations =  4.8

     total cpu time spent up to now is        3.4 secs

     total energy              =    -936.63798200 Ry
     estimated scf accuracy    <       0.07970270 Ry
[tb_dev] Currently allocated     0.00E+00 Mbytes, locked:    0 /   0
[tb_pin] Currently allocated     0.00E+00 Mbytes, locked:    0 /   0

     iteration #  4     ecut=    60.00 Ry     beta= 0.70
     Davidson diagonalization with overlap

---- Real-time Memory Report at c_bands before calling an iterative solver
          1038 MiB given to the printing process from OS
           617 MiB allocation reported by mallinfo(arena+hblkhd)
       1367447 MiB available memory on the node where the printing process lives
     GPU memory used/free/total (MiB): 2251 / 180390 / 182642
------------------
     ethr =  1.17E-04,  avg # of iterations =  8.7

     total cpu time spent up to now is        4.5 secs

     total energy              =    -936.72505772 Ry
     estimated scf accuracy    <       0.30605329 Ry
[tb_dev] Currently allocated     0.00E+00 Mbytes, locked:    0 /   0
[tb_pin] Currently allocated     0.00E+00 Mbytes, locked:    0 /   0

     iteration #  5     ecut=    60.00 Ry     beta= 0.70
     Davidson diagonalization with overlap

---- Real-time Memory Report at c_bands before calling an iterative solver
          1040 MiB given to the printing process from OS
           618 MiB allocation reported by mallinfo(arena+hblkhd)
       1367419 MiB available memory on the node where the printing process lives
     GPU memory used/free/total (MiB): 2251 / 180390 / 182642
------------------
     ethr =  1.17E-04,  avg # of iterations =  6.2

     total cpu time spent up to now is        5.3 secs

     total energy              =    -936.82135938 Ry
     estimated scf accuracy    <       0.04451801 Ry
[tb_dev] Currently allocated     0.00E+00 Mbytes, locked:    0 /   0
[tb_pin] Currently allocated     0.00E+00 Mbytes, locked:    0 /   0

     iteration #  6     ecut=    60.00 Ry     beta= 0.70
     Davidson diagonalization with overlap

---- Real-time Memory Report at c_bands before calling an iterative solver
          1042 MiB given to the printing process from OS
           621 MiB allocation reported by mallinfo(arena+hblkhd)
       1367758 MiB available memory on the node where the printing process lives
     GPU memory used/free/total (MiB): 2251 / 180390 / 182642
------------------
     ethr =  6.55E-05,  avg # of iterations =  1.2

     total cpu time spent up to now is        5.8 secs

     total energy              =    -936.81445338 Ry
     estimated scf accuracy    <       0.01583096 Ry
[tb_dev] Currently allocated     0.00E+00 Mbytes, locked:    0 /   0
[tb_pin] Currently allocated     0.00E+00 Mbytes, locked:    0 /   0

     iteration #  7     ecut=    60.00 Ry     beta= 0.70
     Davidson diagonalization with overlap

---- Real-time Memory Report at c_bands before calling an iterative solver
          1044 MiB given to the printing process from OS
           621 MiB allocation reported by mallinfo(arena+hblkhd)
       1367347 MiB available memory on the node where the printing process lives
     GPU memory used/free/total (MiB): 2251 / 180390 / 182642
------------------
     ethr =  2.33E-05,  avg # of iterations =  5.9

     total cpu time spent up to now is        6.6 secs

     total energy              =    -936.82222724 Ry
     estimated scf accuracy    <       0.00725900 Ry
[tb_dev] Currently allocated     0.00E+00 Mbytes, locked:    0 /   0
[tb_pin] Currently allocated     0.00E+00 Mbytes, locked:    0 /   0

     iteration #  8     ecut=    60.00 Ry     beta= 0.70
     Davidson diagonalization with overlap

---- Real-time Memory Report at c_bands before calling an iterative solver
          1046 MiB given to the printing process from OS
           624 MiB allocation reported by mallinfo(arena+hblkhd)
       1366252 MiB available memory on the node where the printing process lives
     GPU memory used/free/total (MiB): 2251 / 180390 / 182642
------------------
     ethr =  1.07E-05,  avg # of iterations =  1.9

     total cpu time spent up to now is        7.0 secs

     total energy              =    -936.82166761 Ry
     estimated scf accuracy    <       0.00256606 Ry
[tb_dev] Currently allocated     0.00E+00 Mbytes, locked:    0 /   0
[tb_pin] Currently allocated     0.00E+00 Mbytes, locked:    0 /   0

     iteration #  9     ecut=    60.00 Ry     beta= 0.70
     Davidson diagonalization with overlap

---- Real-time Memory Report at c_bands before calling an iterative solver
          1047 MiB given to the printing process from OS
           624 MiB allocation reported by mallinfo(arena+hblkhd)
       1367031 MiB available memory on the node where the printing process lives
     GPU memory used/free/total (MiB): 2251 / 180390 / 182642
------------------
     ethr =  3.77E-06,  avg # of iterations =  4.7

     total cpu time spent up to now is        7.7 secs

     total energy              =    -936.82245703 Ry
     estimated scf accuracy    <       0.00000414 Ry
[tb_dev] Currently allocated     0.00E+00 Mbytes, locked:    0 /   0
[tb_pin] Currently allocated     0.00E+00 Mbytes, locked:    0 /   0

     iteration # 10     ecut=    60.00 Ry     beta= 0.70
     Davidson diagonalization with overlap

---- Real-time Memory Report at c_bands before calling an iterative solver
          1048 MiB given to the printing process from OS
           625 MiB allocation reported by mallinfo(arena+hblkhd)
       1367365 MiB available memory on the node where the printing process lives
     GPU memory used/free/total (MiB): 2251 / 180390 / 182642
------------------
     ethr =  6.08E-09,  avg # of iterations = 11.4

     total cpu time spent up to now is        9.1 secs

     total energy              =    -936.82249975 Ry
     estimated scf accuracy    <       0.00008003 Ry
[tb_dev] Currently allocated     0.00E+00 Mbytes, locked:    0 /   0
[tb_pin] Currently allocated     0.00E+00 Mbytes, locked:    0 /   0

     iteration # 11     ecut=    60.00 Ry     beta= 0.70
     Davidson diagonalization with overlap

---- Real-time Memory Report at c_bands before calling an iterative solver
          1048 MiB given to the printing process from OS
           625 MiB allocation reported by mallinfo(arena+hblkhd)
       1367405 MiB available memory on the node where the printing process lives
     GPU memory used/free/total (MiB): 2251 / 180390 / 182642
------------------
     ethr =  6.08E-09,  avg # of iterations =  1.0

     total cpu time spent up to now is        9.5 secs

     total energy              =    -936.82244260 Ry
     estimated scf accuracy    <       0.00006887 Ry
[tb_dev] Currently allocated     0.00E+00 Mbytes, locked:    0 /   0
[tb_pin] Currently allocated     0.00E+00 Mbytes, locked:    0 /   0

     iteration # 12     ecut=    60.00 Ry     beta= 0.70
     Davidson diagonalization with overlap

---- Real-time Memory Report at c_bands before calling an iterative solver
          1048 MiB given to the printing process from OS
           625 MiB allocation reported by mallinfo(arena+hblkhd)
       1367385 MiB available memory on the node where the printing process lives
     GPU memory used/free/total (MiB): 2251 / 180390 / 182642
------------------
     ethr =  6.08E-09,  avg # of iterations = 10.1

     total cpu time spent up to now is       10.8 secs

     total energy              =    -936.82252968 Ry
     estimated scf accuracy    <       0.00024221 Ry
[tb_dev] Currently allocated     0.00E+00 Mbytes, locked:    0 /   0
[tb_pin] Currently allocated     0.00E+00 Mbytes, locked:    0 /   0

     iteration # 13     ecut=    60.00 Ry     beta= 0.70
     Davidson diagonalization with overlap

---- Real-time Memory Report at c_bands before calling an iterative solver
          1048 MiB given to the printing process from OS
           625 MiB allocation reported by mallinfo(arena+hblkhd)
       1367367 MiB available memory on the node where the printing process lives
     GPU memory used/free/total (MiB): 2251 / 180390 / 182642
------------------
     ethr =  6.08E-09,  avg # of iterations =  2.0

     total cpu time spent up to now is       11.2 secs

     total energy              =    -936.82247524 Ry
     estimated scf accuracy    <       0.00020318 Ry
[tb_dev] Currently allocated     0.00E+00 Mbytes, locked:    0 /   0
[tb_pin] Currently allocated     0.00E+00 Mbytes, locked:    0 /   0

     iteration # 14     ecut=    60.00 Ry     beta= 0.70
     Davidson diagonalization with overlap

---- Real-time Memory Report at c_bands before calling an iterative solver
          1048 MiB given to the printing process from OS
           625 MiB allocation reported by mallinfo(arena+hblkhd)
       1367402 MiB available memory on the node where the printing process lives
     GPU memory used/free/total (MiB): 2251 / 180390 / 182642
------------------
     ethr =  6.08E-09,  avg # of iterations =  7.5

     total cpu time spent up to now is       12.2 secs

     total energy              =    -936.82248760 Ry
     estimated scf accuracy    <       0.00002932 Ry
[tb_dev] Currently allocated     0.00E+00 Mbytes, locked:    0 /   0
[tb_pin] Currently allocated     0.00E+00 Mbytes, locked:    0 /   0

     iteration # 15     ecut=    60.00 Ry     beta= 0.70
     Davidson diagonalization with overlap

---- Real-time Memory Report at c_bands before calling an iterative solver
          1048 MiB given to the printing process from OS
           625 MiB allocation reported by mallinfo(arena+hblkhd)
       1367401 MiB available memory on the node where the printing process lives
     GPU memory used/free/total (MiB): 2251 / 180390 / 182642
------------------
     ethr =  6.08E-09,  avg # of iterations =  2.3

     total cpu time spent up to now is       12.7 secs

     total energy              =    -936.82248683 Ry
     estimated scf accuracy    <       0.00002011 Ry
[tb_dev] Currently allocated     0.00E+00 Mbytes, locked:    0 /   0
[tb_pin] Currently allocated     0.00E+00 Mbytes, locked:    0 /   0

     iteration # 16     ecut=    60.00 Ry     beta= 0.70
     Davidson diagonalization with overlap

---- Real-time Memory Report at c_bands before calling an iterative solver
          1048 MiB given to the printing process from OS
           625 MiB allocation reported by mallinfo(arena+hblkhd)
       1367404 MiB available memory on the node where the printing process lives
     GPU memory used/free/total (MiB): 2251 / 180390 / 182642
------------------
     ethr =  6.08E-09,  avg # of iterations =  2.0

     total cpu time spent up to now is       13.2 secs

     total energy              =    -936.82248370 Ry
     estimated scf accuracy    <       0.00001584 Ry
[tb_dev] Currently allocated     0.00E+00 Mbytes, locked:    0 /   0
[tb_pin] Currently allocated     0.00E+00 Mbytes, locked:    0 /   0

     iteration # 17     ecut=    60.00 Ry     beta= 0.70
     Davidson diagonalization with overlap

---- Real-time Memory Report at c_bands before calling an iterative solver
          1048 MiB given to the printing process from OS
           625 MiB allocation reported by mallinfo(arena+hblkhd)
       1367404 MiB available memory on the node where the printing process lives
     GPU memory used/free/total (MiB): 2251 / 180390 / 182642
------------------
     ethr =  6.08E-09,  avg # of iterations =  4.8

     total cpu time spent up to now is       13.9 secs

     total energy              =    -936.82248478 Ry
     estimated scf accuracy    <       0.00000302 Ry
[tb_dev] Currently allocated     0.00E+00 Mbytes, locked:    0 /   0
[tb_pin] Currently allocated     0.00E+00 Mbytes, locked:    0 /   0

     iteration # 18     ecut=    60.00 Ry     beta= 0.70
     Davidson diagonalization with overlap

---- Real-time Memory Report at c_bands before calling an iterative solver
          1048 MiB given to the printing process from OS
           625 MiB allocation reported by mallinfo(arena+hblkhd)
       1367376 MiB available memory on the node where the printing process lives
     GPU memory used/free/total (MiB): 2251 / 180390 / 182642
------------------
     ethr =  4.44E-09,  avg # of iterations =  1.4

     total cpu time spent up to now is       14.3 secs

     total energy              =    -936.82248425 Ry
     estimated scf accuracy    <       0.00000175 Ry
[tb_dev] Currently allocated     0.00E+00 Mbytes, locked:    0 /   0
[tb_pin] Currently allocated     0.00E+00 Mbytes, locked:    0 /   0

     iteration # 19     ecut=    60.00 Ry     beta= 0.70
     Davidson diagonalization with overlap

---- Real-time Memory Report at c_bands before calling an iterative solver
          1048 MiB given to the printing process from OS
           625 MiB allocation reported by mallinfo(arena+hblkhd)
       1367416 MiB available memory on the node where the printing process lives
     GPU memory used/free/total (MiB): 2251 / 180390 / 182642
------------------
     ethr =  2.57E-09,  avg # of iterations =  5.0

     total cpu time spent up to now is       15.0 secs

     total energy              =    -936.82248484 Ry
     estimated scf accuracy    <          1.3E-09 Ry
[tb_dev] Currently allocated     0.00E+00 Mbytes, locked:    0 /   0
[tb_pin] Currently allocated     0.00E+00 Mbytes, locked:    0 /   0

     iteration # 20     ecut=    60.00 Ry     beta= 0.70
     Davidson diagonalization with overlap

---- Real-time Memory Report at c_bands before calling an iterative solver
          1048 MiB given to the printing process from OS
           625 MiB allocation reported by mallinfo(arena+hblkhd)
       1367391 MiB available memory on the node where the printing process lives
     GPU memory used/free/total (MiB): 2251 / 180390 / 182642
------------------
     ethr =  1.87E-12,  avg # of iterations = 16.2

     total cpu time spent up to now is       16.9 secs

     total energy              =    -936.82248489 Ry
     estimated scf accuracy    <       0.00000009 Ry
[tb_dev] Currently allocated     0.00E+00 Mbytes, locked:    0 /   0
[tb_pin] Currently allocated     0.00E+00 Mbytes, locked:    0 /   0

     iteration # 21     ecut=    60.00 Ry     beta= 0.70
     Davidson diagonalization with overlap

---- Real-time Memory Report at c_bands before calling an iterative solver
          1048 MiB given to the printing process from OS
           625 MiB allocation reported by mallinfo(arena+hblkhd)
       1368319 MiB available memory on the node where the printing process lives
     GPU memory used/free/total (MiB): 2251 / 180390 / 182642
------------------
     ethr =  1.87E-12,  avg # of iterations =  6.0

     total cpu time spent up to now is       17.7 secs

     total energy              =    -936.82248487 Ry
     estimated scf accuracy    <       0.00000004 Ry
[tb_dev] Currently allocated     0.00E+00 Mbytes, locked:    0 /   0
[tb_pin] Currently allocated     0.00E+00 Mbytes, locked:    0 /   0

     iteration # 22     ecut=    60.00 Ry     beta= 0.70
     Davidson diagonalization with overlap

---- Real-time Memory Report at c_bands before calling an iterative solver
          1048 MiB given to the printing process from OS
           625 MiB allocation reported by mallinfo(arena+hblkhd)
       1368296 MiB available memory on the node where the printing process lives
     GPU memory used/free/total (MiB): 2251 / 180390 / 182642
------------------
     ethr =  1.87E-12,  avg # of iterations =  9.8

     total cpu time spent up to now is       19.0 secs

     total energy              =    -936.82248489 Ry
     estimated scf accuracy    <       0.00000002 Ry
[tb_dev] Currently allocated     0.00E+00 Mbytes, locked:    0 /   0
[tb_pin] Currently allocated     0.00E+00 Mbytes, locked:    0 /   0

     iteration # 23     ecut=    60.00 Ry     beta= 0.70
     Davidson diagonalization with overlap

---- Real-time Memory Report at c_bands before calling an iterative solver
          1048 MiB given to the printing process from OS
           625 MiB allocation reported by mallinfo(arena+hblkhd)
       1368418 MiB available memory on the node where the printing process lives
     GPU memory used/free/total (MiB): 2251 / 180390 / 182642
------------------
     ethr =  1.87E-12,  avg # of iterations =  5.8

     total cpu time spent up to now is       19.8 secs

     total energy              =    -936.82248489 Ry
     estimated scf accuracy    <          2.9E-09 Ry
[tb_dev] Currently allocated     0.00E+00 Mbytes, locked:    0 /   0
[tb_pin] Currently allocated     0.00E+00 Mbytes, locked:    0 /   0

     iteration # 24     ecut=    60.00 Ry     beta= 0.70
     Davidson diagonalization with overlap

---- Real-time Memory Report at c_bands before calling an iterative solver
          1048 MiB given to the printing process from OS
           625 MiB allocation reported by mallinfo(arena+hblkhd)
       1368275 MiB available memory on the node where the printing process lives
     GPU memory used/free/total (MiB): 2251 / 180390 / 182642
------------------
     ethr =  1.87E-12,  avg # of iterations =  4.5

     total cpu time spent up to now is       20.5 secs

     total energy              =    -936.82248489 Ry
     estimated scf accuracy    <          3.7E-10 Ry
[tb_dev] Currently allocated     0.00E+00 Mbytes, locked:    0 /   0
[tb_pin] Currently allocated     0.00E+00 Mbytes, locked:    0 /   0

     iteration # 25     ecut=    60.00 Ry     beta= 0.70
     Davidson diagonalization with overlap

---- Real-time Memory Report at c_bands before calling an iterative solver
          1048 MiB given to the printing process from OS
           625 MiB allocation reported by mallinfo(arena+hblkhd)
       1368189 MiB available memory on the node where the printing process lives
     GPU memory used/free/total (MiB): 2251 / 180390 / 182642
------------------
     ethr =  5.51E-13,  avg # of iterations =  3.1

     total cpu time spent up to now is       21.1 secs

     total energy              =    -936.82248489 Ry
     estimated scf accuracy    <          2.5E-10 Ry
[tb_dev] Currently allocated     0.00E+00 Mbytes, locked:    0 /   0
[tb_pin] Currently allocated     0.00E+00 Mbytes, locked:    0 /   0

     iteration # 26     ecut=    60.00 Ry     beta= 0.70
     Davidson diagonalization with overlap

---- Real-time Memory Report at c_bands before calling an iterative solver
          1048 MiB given to the printing process from OS
           625 MiB allocation reported by mallinfo(arena+hblkhd)
       1368100 MiB available memory on the node where the printing process lives
     GPU memory used/free/total (MiB): 2251 / 180390 / 182642
------------------
     ethr =  3.69E-13,  avg # of iterations =  4.3

     total cpu time spent up to now is       21.8 secs

     total energy              =    -936.82248489 Ry
     estimated scf accuracy    <          1.1E-09 Ry
[tb_dev] Currently allocated     0.00E+00 Mbytes, locked:    0 /   0
[tb_pin] Currently allocated     0.00E+00 Mbytes, locked:    0 /   0

     iteration # 27     ecut=    60.00 Ry     beta= 0.70
     Davidson diagonalization with overlap

---- Real-time Memory Report at c_bands before calling an iterative solver
          1048 MiB given to the printing process from OS
           625 MiB allocation reported by mallinfo(arena+hblkhd)
       1367785 MiB available memory on the node where the printing process lives
     GPU memory used/free/total (MiB): 2251 / 180390 / 182642
------------------
     ethr =  3.69E-13,  avg # of iterations =  6.0

     total cpu time spent up to now is       22.6 secs

     total energy              =    -936.82248489 Ry
     estimated scf accuracy    <          7.5E-12 Ry
[tb_dev] Currently allocated     0.00E+00 Mbytes, locked:    0 /   0
[tb_pin] Currently allocated     0.00E+00 Mbytes, locked:    0 /   0

     iteration # 28     ecut=    60.00 Ry     beta= 0.70
     Davidson diagonalization with overlap

---- Real-time Memory Report at c_bands before calling an iterative solver
          1048 MiB given to the printing process from OS
           625 MiB allocation reported by mallinfo(arena+hblkhd)
       1367402 MiB available memory on the node where the printing process lives
     GPU memory used/free/total (MiB): 2251 / 180390 / 182642
------------------
     ethr =  1.00E-13,  avg # of iterations =  4.4

     total cpu time spent up to now is       23.2 secs

     total energy              =    -936.82248489 Ry
     estimated scf accuracy    <          1.2E-12 Ry
[tb_dev] Currently allocated     0.00E+00 Mbytes, locked:    0 /   0
[tb_pin] Currently allocated     0.00E+00 Mbytes, locked:    0 /   0

     iteration # 29     ecut=    60.00 Ry     beta= 0.70
     Davidson diagonalization with overlap

---- Real-time Memory Report at c_bands before calling an iterative solver
          1048 MiB given to the printing process from OS
           625 MiB allocation reported by mallinfo(arena+hblkhd)
       1367378 MiB available memory on the node where the printing process lives
     GPU memory used/free/total (MiB): 2251 / 180390 / 182642
------------------
     ethr =  1.00E-13,  avg # of iterations =  1.0

     total cpu time spent up to now is       23.6 secs

     End of self-consistent calculation

          k = 0.0000 0.0000 0.0000 (  5295 PWs)   bands (ev):

   -45.7867 -45.7649 -33.7479 -33.7439 -22.2791 -22.2791 -22.1930 -22.0703
   -22.0703 -21.9386  -9.1017  -8.4130  -8.4130  -7.2593  -6.9994  -6.9994
     3.2166   3.2166   3.3894   3.4875   3.4875   4.6205   5.8460   5.9170
     5.9170   6.6743   7.0986   7.0986   7.2424   7.3413   7.3413   7.5336
     7.9929   7.9929

     occupation numbers 
     1.0000   1.0000   1.0000   1.0000   1.0000   1.0000   1.0000   1.0000
     1.0000   1.0000   1.0000   1.0000   1.0000   1.0000   1.0000   1.0000
     1.0000   1.0000   1.0000   1.0000   1.0000   1.0000   1.0000   1.0000
     1.0000   1.0000   1.0000   1.0000   1.0000   1.0000   1.0000   1.0000
     1.0000   1.0000

          k =-0.0000-0.2069 0.0659 (  5290 PWs)   bands (ev):

   -45.7852 -45.7663 -33.7477 -33.7442 -22.2680 -22.2660 -22.1756 -22.0867
   -22.0853 -21.9557  -8.9747  -8.3366  -8.3345  -7.3533  -7.1292  -7.1125
     3.1505   3.2607   3.5347   3.7920   3.8095   4.6628   5.5134   5.5954
     5.7076   6.6680   6.8551   7.1196   7.1229   7.4535   7.5363   7.6008
     7.8309   7.9091

     occupation numbers 
     1.0000   1.0000   1.0000   1.0000   1.0000   1.0000   1.0000   1.0000
     1.0000   1.0000   1.0000   1.0000   1.0000   1.0000   1.0000   1.0000
     1.0000   1.0000   1.0000   1.0000   1.0000   1.0000   1.0000   1.0000
     1.0000   1.0000   1.0000   1.0000   1.0000   1.0000   1.0000   1.0000
     1.0000   1.0000

          k =-0.0000-0.4138 0.1317 (  5292 PWs)   bands (ev):

   -45.7811 -45.7702 -33.7471 -33.7450 -22.2352 -22.2297 -22.1301 -22.1293
   -22.1250 -22.0022  -8.6250  -8.1286  -8.1167  -7.6321  -7.4477  -7.3997
     3.3293   3.5069   3.8485   4.3905   4.4154   4.7457   4.7576   5.1190
     5.3854   6.1013   6.4938   6.8133   7.3921   7.4302   7.4830   7.6537
     7.7700   7.9218

     occupation numbers 
     1.0000   1.0000   1.0000   1.0000   1.0000   1.0000   1.0000   1.0000
     1.0000   1.0000   1.0000   1.0000   1.0000   1.0000   1.0000   1.0000
     1.0000   1.0000   1.0000   1.0000   1.0000   1.0000   1.0000   1.0000
     1.0000   1.0000   1.0000   1.0000   1.0000   1.0000   1.0000   1.0000
     1.0000   1.0000

          k = 0.0000 0.6207-0.1976 (  5316 PWs)   bands (ev):

   -45.7757 -45.7757 -33.7461 -33.7461 -22.1853 -22.1853 -22.1785 -22.1785
   -22.0655 -22.0655  -8.1588  -8.1588  -7.8230  -7.8230  -7.7202  -7.7202
     3.7489   3.7489   4.0251   4.0251   4.5862   4.5862   5.1075   5.1075
     5.5885   5.5885   6.1087   6.1087   7.5090   7.5090   7.6910   7.6910
     7.7800   7.7800

     occupation numbers 
     1.0000   1.0000   1.0000   1.0000   1.0000   1.0000   1.0000   1.0000
     1.0000   1.0000   1.0000   1.0000   1.0000   1.0000   1.0000   1.0000
     1.0000   1.0000   1.0000   1.0000   1.0000   1.0000   1.0000   1.0000
     1.0000   1.0000   1.0000   1.0000   1.0000   1.0000   1.0000   1.0000
     1.0000   1.0000

          k =-0.1792-0.1034 0.1317 (  5310 PWs)   bands (ev):

   -45.7848 -45.7666 -33.7477 -33.7443 -22.2830 -22.2556 -22.1605 -22.1178
   -22.0676 -21.9535  -8.9692  -8.3906  -8.2113  -7.4867  -7.1443  -7.0432
     3.2302   3.2606   3.4262   3.7769   3.9401   4.8204   5.1176   5.7753
     5.8671   6.6655   6.7914   6.9935   7.1308   7.3100   7.4745   7.5718
     7.8710   7.9269

     occupation numbers 
     1.0000   1.0000   1.0000   1.0000   1.0000   1.0000   1.0000   1.0000
     1.0000   1.0000   1.0000   1.0000   1.0000   1.0000   1.0000   1.0000
     1.0000   1.0000   1.0000   1.0000   1.0000   1.0000   1.0000   1.0000
     1.0000   1.0000   1.0000   1.0000   1.0000   1.0000   1.0000   1.0000
     1.0000   1.0000

          k =-0.1792-0.3103 0.1976 (  5302 PWs)   bands (ev):

   -45.7820 -45.7694 -33.7472 -33.7448 -22.2741 -22.2346 -22.1723 -22.1090
   -22.0815 -21.9754  -8.7698  -8.2954  -7.9625  -7.7932  -7.2818  -7.1985
     3.1478   3.4507   3.8578   4.0542   4.2606   4.5407   5.1103   5.3218
     5.7603   6.2990   6.7198   6.9605   7.0876   7.2480   7.3676   7.6150
     7.7582   7.9185

     occupation numbers 
     1.0000   1.0000   1.0000   1.0000   1.0000   1.0000   1.0000   1.0000
     1.0000   1.0000   1.0000   1.0000   1.0000   1.0000   1.0000   1.0000
     1.0000   1.0000   1.0000   1.0000   1.0000   1.0000   1.0000   1.0000
     1.0000   1.0000   1.0000   1.0000   1.0000   1.0000   1.0000   1.0000
     1.0000   1.0000

          k =-0.1792 0.7241-0.1317 (  5289 PWs)   bands (ev):

   -45.7775 -45.7738 -33.7464 -33.7457 -22.2408 -22.2264 -22.1930 -22.1232
   -22.0500 -22.0221  -8.4094  -8.2053  -8.0696  -7.5932  -7.5759  -7.4993
     3.3528   3.6336   3.8828   4.3105   4.5413   4.6799   4.8952   5.1566
     5.4492   5.9505   6.4254   6.7397   7.1479   7.3796   7.4284   7.5684
     7.7651   7.8668

     occupation numbers 
     1.0000   1.0000   1.0000   1.0000   1.0000   1.0000   1.0000   1.0000
     1.0000   1.0000   1.0000   1.0000   1.0000   1.0000   1.0000   1.0000
     1.0000   1.0000   1.0000   1.0000   1.0000   1.0000   1.0000   1.0000
     1.0000   1.0000   1.0000   1.0000   1.0000   1.0000   1.0000   1.0000
     1.0000   1.0000

          k =-0.1792 0.5172-0.0659 (  5289 PWs)   bands (ev):

   -45.7788 -45.7725 -33.7467 -33.7455 -22.2633 -22.1889 -22.1782 -22.1398
   -22.0831 -22.0018  -8.5428  -8.0328  -7.9333  -7.8237  -7.7290  -7.2854
     3.3098   3.7264   3.9034   4.0547   4.2915   4.7614   5.0702   5.2573
     5.5776   5.9577   6.2709   6.9986   7.0354   7.2828   7.4638   7.6874
     7.7476   7.8989

     occupation numbers 
     1.0000   1.0000   1.0000   1.0000   1.0000   1.0000   1.0000   1.0000
     1.0000   1.0000   1.0000   1.0000   1.0000   1.0000   1.0000   1.0000
     1.0000   1.0000   1.0000   1.0000   1.0000   1.0000   1.0000   1.0000
     1.0000   1.0000   1.0000   1.0000   1.0000   1.0000   1.0000   1.0000
     1.0000   1.0000

          k =-0.1792 0.3103 0.0000 (  5296 PWs)   bands (ev):

   -45.7830 -45.7684 -33.7474 -33.7446 -22.2749 -22.2304 -22.1420 -22.1316
   -22.0952 -21.9719  -8.8125  -8.2622  -8.1412  -7.5502  -7.4027  -7.1220
     3.1923   3.3754   3.7406   3.8032   4.4080   4.7598   4.8990   5.2142
     5.8659   6.5309   6.7536   6.8815   7.2292   7.3913   7.4346   7.6338
     7.6906   7.9563

     occupation numbers 
     1.0000   1.0000   1.0000   1.0000   1.0000   1.0000   1.0000   1.0000
     1.0000   1.0000   1.0000   1.0000   1.0000   1.0000   1.0000   1.0000
     1.0000   1.0000   1.0000   1.0000   1.0000   1.0000   1.0000   1.0000
     1.0000   1.0000   1.0000   1.0000   1.0000   1.0000   1.0000   1.0000
     1.0000   1.0000

          k =-0.3584-0.2069 0.2634 (  5291 PWs)   bands (ev):

   -45.7811 -45.7702 -33.7471 -33.7450 -22.2908 -22.2466 -22.2299 -22.0627
   -22.0534 -21.9624  -8.7929  -8.3456  -8.0949  -7.6656  -7.2166  -7.1348
     3.1887   3.2900   3.6130   3.7981   4.3203   4.6713   5.4096   5.6105
     6.1574   6.3496   6.5771   6.8885   6.8969   7.1506   7.2471   7.5428
     7.6037   7.8349

     occupation numbers 
     1.0000   1.0000   1.0000   1.0000   1.0000   1.0000   1.0000   1.0000
     1.0000   1.0000   1.0000   1.0000   1.0000   1.0000   1.0000   1.0000
     1.0000   1.0000   1.0000   1.0000   1.0000   1.0000   1.0000   1.0000
     1.0000   1.0000   1.0000   1.0000   1.0000   1.0000   1.0000   1.0000
     1.0000   1.0000

          k =-0.3584 0.8276-0.0659 (  5278 PWs)   bands (ev):

   -45.7788 -45.7725 -33.7467 -33.7455 -22.2808 -22.2707 -22.2314 -22.0769
   -22.0101 -21.9793  -8.6404  -8.3439  -8.2476  -7.4091  -7.3333  -7.2741
     3.1069   3.3287   3.5594   3.8929   4.5689   4.9473   5.1804   5.6313
     5.9229   6.3321   6.5774   6.7361   6.8875   7.1070   7.2752   7.3814
     7.6338   7.8737

     occupation numbers 
     1.0000   1.0000   1.0000   1.0000   1.0000   1.0000   1.0000   1.0000
     1.0000   1.0000   1.0000   1.0000   1.0000   1.0000   1.0000   1.0000
     1.0000   1.0000   1.0000   1.0000   1.0000   1.0000   1.0000   1.0000
     1.0000   1.0000   1.0000   1.0000   1.0000   1.0000   1.0000   1.0000
     1.0000   1.0000

          k =-0.3584 0.6207 0.0000 (  5296 PWs)   bands (ev):

   -45.7756 -45.7756 -33.7461 -33.7461 -22.2826 -22.2441 -22.1898 -22.1204
   -22.0240 -21.9931  -8.4886  -8.3390  -8.0440  -7.6299  -7.5335  -7.2617
     3.1822   3.3644   3.8720   4.1622   4.5210   4.6608   5.1113   5.4935
     5.8121   6.0796   6.4073   6.6717   7.1175   7.1676   7.2765   7.5828
     7.6326   7.8902

     occupation numbers 
     1.0000   1.0000   1.0000   1.0000   1.0000   1.0000   1.0000   1.0000
     1.0000   1.0000   1.0000   1.0000   1.0000   1.0000   1.0000   1.0000
     1.0000   1.0000   1.0000   1.0000   1.0000   1.0000   1.0000   1.0000
     1.0000   1.0000   1.0000   1.0000   1.0000   1.0000   1.0000   1.0000
     1.0000   1.0000

          k = 0.5375 0.3103-0.3951 (  5288 PWs)   bands (ev):

   -45.7793 -45.7720 -33.7469 -33.7453 -22.2952 -22.2874 -22.2474 -22.0595
   -21.9936 -21.9630  -8.7265  -8.4025  -8.3066  -7.3388  -7.2413  -7.1796
     3.1733   3.1875   3.2775   3.5610   4.8936   5.1686   5.4878   5.8623
     5.9465   6.0933   6.5410   6.5871   6.9594   7.0695   7.2234   7.4045
     7.5902   7.7939

     occupation numbers 
     1.0000   1.0000   1.0000   1.0000   1.0000   1.0000   1.0000   1.0000
     1.0000   1.0000   1.0000   1.0000   1.0000   1.0000   1.0000   1.0000
     1.0000   1.0000   1.0000   1.0000   1.0000   1.0000   1.0000   1.0000
     1.0000   1.0000   1.0000   1.0000   1.0000   1.0000   1.0000   1.0000
     1.0000   1.0000

          k = 0.0000-0.0000 0.1976 (  5292 PWs)   bands (ev):

   -45.7852 -45.7663 -33.7477 -33.7442 -22.2657 -22.2657 -22.1772 -22.0849
   -22.0849 -21.9569  -8.9901  -8.3284  -8.3284  -7.3981  -7.1071  -7.1071
     3.3163   3.3163   3.5377   3.7287   3.7287   4.7355   5.5882   5.6653
     5.6653   6.7552   6.7552   6.7847   7.0352   7.3581   7.3581   7.5517
     8.0098   8.0098

     occupation numbers 
     1.0000   1.0000   1.0000   1.0000   1.0000   1.0000   1.0000   1.0000
     1.0000   1.0000   1.0000   1.0000   1.0000   1.0000   1.0000   1.0000
     1.0000   1.0000   1.0000   1.0000   1.0000   1.0000   1.0000   1.0000
     1.0000   1.0000   1.0000   1.0000   1.0000   1.0000   1.0000   1.0000
     1.0000   1.0000

          k = 0.0000-0.2069 0.2634 (  5279 PWs)   bands (ev):

   -45.7830 -45.7684 -33.7473 -33.7446 -22.2752 -22.2256 -22.1447 -22.1279
   -22.0964 -21.9731  -8.8341  -8.2524  -8.1316  -7.6175  -7.3587  -7.1237
     3.2374   3.4381   3.7766   4.0153   4.2588   4.8679   5.0489   5.2513
     5.6328   6.2107   6.6264   6.8940   6.9668   7.3575   7.5445   7.5572
     7.8631   7.9239

     occupation numbers 
     1.0000   1.0000   1.0000   1.0000   1.0000   1.0000   1.0000   1.0000
     1.0000   1.0000   1.0000   1.0000   1.0000   1.0000   1.0000   1.0000
     1.0000   1.0000   1.0000   1.0000   1.0000   1.0000   1.0000   1.0000
     1.0000   1.0000   1.0000   1.0000   1.0000   1.0000   1.0000   1.0000
     1.0000   1.0000

          k = 0.0000 0.8276-0.0659 (  5274 PWs)   bands (ev):

   -45.7788 -45.7725 -33.7466 -33.7455 -22.2649 -22.1840 -22.1725 -22.1436
   -22.0861 -22.0019  -8.5494  -8.0238  -8.0076  -7.7999  -7.6853  -7.2986
     3.2602   3.6634   4.2039   4.3063   4.4669   4.7338   4.7408   5.2988
     5.4890   5.6146   6.3478   6.8446   7.1798   7.2239   7.5449   7.6001
     7.7676   7.8115

     occupation numbers 
     1.0000   1.0000   1.0000   1.0000   1.0000   1.0000   1.0000   1.0000
     1.0000   1.0000   1.0000   1.0000   1.0000   1.0000   1.0000   1.0000
     1.0000   1.0000   1.0000   1.0000   1.0000   1.0000   1.0000   1.0000
     1.0000   1.0000   1.0000   1.0000   1.0000   1.0000   1.0000   1.0000
     1.0000   1.0000

          k = 0.0000 0.6207 0.0000 (  5300 PWs)   bands (ev):

   -45.7775 -45.7738 -33.7465 -33.7457 -22.2372 -22.2282 -22.1977 -22.1194
   -22.0493 -22.0237  -8.4169  -8.2039  -8.0542  -7.6070  -7.5937  -7.4769
     3.5459   3.6315   3.7840   3.9679   4.4378   4.7397   5.1000   5.3036
     5.6242   5.9355   6.3544   6.6052   7.1248   7.3594   7.4399   7.5991
     7.6728   7.9043

     occupation numbers 
     1.0000   1.0000   1.0000   1.0000   1.0000   1.0000   1.0000   1.0000
     1.0000   1.0000   1.0000   1.0000   1.0000   1.0000   1.0000   1.0000
     1.0000   1.0000   1.0000   1.0000   1.0000   1.0000   1.0000   1.0000
     1.0000   1.0000   1.0000   1.0000   1.0000   1.0000   1.0000   1.0000
     1.0000   1.0000

          k = 0.0000 0.4138 0.0659 (  5286 PWs)   bands (ev):

   -45.7820 -45.7694 -33.7473 -33.7448 -22.2728 -22.2373 -22.1736 -22.1083
   -22.0805 -21.9755  -8.7638  -8.3022  -7.9440  -7.8001  -7.2931  -7.1891
     3.3077   3.4208   3.4872   4.2061   4.2289   4.4443   5.1325   5.4698
     5.7662   6.4815   6.7810   6.9650   7.0403   7.1286   7.4163   7.6188
     7.7324   7.9217

     occupation numbers 
     1.0000   1.0000   1.0000   1.0000   1.0000   1.0000   1.0000   1.0000
     1.0000   1.0000   1.0000   1.0000   1.0000   1.0000   1.0000   1.0000
     1.0000   1.0000   1.0000   1.0000   1.0000   1.0000   1.0000   1.0000
     1.0000   1.0000   1.0000   1.0000   1.0000   1.0000   1.0000   1.0000
     1.0000   1.0000

          k =-0.1792-0.1034 0.3293 (  5302 PWs)   bands (ev):

   -45.7820 -45.7694 -33.7472 -33.7448 -22.2722 -22.2337 -22.1709 -22.1102
   -22.0798 -21.9771  -8.7930  -8.2830  -7.9352  -7.8414  -7.2981  -7.1776
     3.3848   3.4182   3.8398   4.1695   4.1747   4.5708   5.1509   5.4565
     5.6394   6.2137   6.4898   6.8838   6.9878   7.1403   7.2956   7.6072
     7.7967   7.9339

     occupation numbers 
     1.0000   1.0000   1.0000   1.0000   1.0000   1.0000   1.0000   1.0000
     1.0000   1.0000   1.0000   1.0000   1.0000   1.0000   1.0000   1.0000
     1.0000   1.0000   1.0000   1.0000   1.0000   1.0000   1.0000   1.0000
     1.0000   1.0000   1.0000   1.0000   1.0000   1.0000   1.0000   1.0000
     1.0000   1.0000

          k =-0.1792 0.9310 0.0000 (  5279 PWs)   bands (ev):

   -45.7793 -45.7720 -33.7468 -33.7454 -22.2801 -22.2274 -22.2034 -22.1014
   -22.0529 -21.9836  -8.6536  -8.1773  -8.1443  -7.6300  -7.5148  -7.2020
     3.2296   3.5222   3.8775   4.2462   4.3776   4.7032   4.9248   5.4678
     5.7555   6.1245   6.4962   6.7189   6.9180   7.1136   7.3375   7.5419
     7.6861   7.8224

     occupation numbers 
     1.0000   1.0000   1.0000   1.0000   1.0000   1.0000   1.0000   1.0000
     1.0000   1.0000   1.0000   1.0000   1.0000   1.0000   1.0000   1.0000
     1.0000   1.0000   1.0000   1.0000   1.0000   1.0000   1.0000   1.0000
     1.0000   1.0000   1.0000   1.0000   1.0000   1.0000   1.0000   1.0000
     1.0000   1.0000

          k =-0.1792 0.7241 0.0659 (  5284 PWs)   bands (ev):

   -45.7757 -45.7756 -33.7461 -33.7461 -22.2688 -22.2671 -22.1533 -22.1506
   -22.0070 -22.0061  -8.4444  -8.4267  -7.9228  -7.8094  -7.3625  -7.3397
     3.2599   3.3929   3.7788   4.0707   4.6015   5.0068   5.0377   5.3379
     5.6485   6.1159   6.6015   6.7406   6.8114   7.1068   7.3270   7.5272
     7.6844   7.8187

     occupation numbers 
     1.0000   1.0000   1.0000   1.0000   1.0000   1.0000   1.0000   1.0000
     1.0000   1.0000   1.0000   1.0000   1.0000   1.0000   1.0000   1.0000
     1.0000   1.0000   1.0000   1.0000   1.0000   1.0000   1.0000   1.0000
     1.0000   1.0000   1.0000   1.0000   1.0000   1.0000   1.0000   1.0000
     1.0000   1.0000

          k =-0.1792 0.5172 0.1317 (  5286 PWs)   bands (ev):

   -45.7793 -45.7720 -33.7468 -33.7454 -22.2801 -22.2294 -22.2065 -22.1014
   -22.0516 -21.9829  -8.6369  -8.1823  -8.1252  -7.6303  -7.5234  -7.1969
     3.1799   3.5388   3.7089   3.9890   4.3494   4.7847   4.9847   5.5983
     5.8060   6.3353   6.4279   6.7615   7.0760   7.2479   7.3554   7.4429
     7.6792   7.9026

     occupation numbers 
     1.0000   1.0000   1.0000   1.0000   1.0000   1.0000   1.0000   1.0000
     1.0000   1.0000   1.0000   1.0000   1.0000   1.0000   1.0000   1.0000
     1.0000   1.0000   1.0000   1.0000   1.0000   1.0000   1.0000   1.0000
     1.0000   1.0000   1.0000   1.0000   1.0000   1.0000   1.0000   1.0000
     1.0000   1.0000

          k = 0.7167 0.4138-0.3293 (  5284 PWs)   bands (ev):

   -45.7788 -45.7725 -33.7467 -33.7454 -22.2793 -22.2701 -22.2317 -22.0752
   -22.0103 -21.9805  -8.6562  -8.3525  -8.2355  -7.4119  -7.3541  -7.2563
     3.3379   3.3779   3.4105   3.8589   4.6647   4.8490   5.2813   5.5717
     6.1038   6.2021   6.5556   6.5776   6.9708   7.0155   7.2428   7.2939
     7.5140   7.8608

     occupation numbers 
     1.0000   1.0000   1.0000   1.0000   1.0000   1.0000   1.0000   1.0000
     1.0000   1.0000   1.0000   1.0000   1.0000   1.0000   1.0000   1.0000
     1.0000   1.0000   1.0000   1.0000   1.0000   1.0000   1.0000   1.0000
     1.0000   1.0000   1.0000   1.0000   1.0000   1.0000   1.0000   1.0000
     1.0000   1.0000

          k = 0.7167 0.2069-0.2634 (  5275 PWs)   bands (ev):

   -45.7775 -45.7738 -33.7465 -33.7457 -22.2859 -22.2829 -22.2042 -22.0993
   -21.9935 -21.9840  -8.5822  -8.4421  -8.1304  -7.5615  -7.3012  -7.2357
     3.1743   3.2085   3.5534   4.1120   4.3975   5.1617   5.3444   5.5667
     6.0108   6.1715   6.4146   6.5729   6.8445   7.0239   7.3212   7.4635
     7.5713   7.8473

     occupation numbers 
     1.0000   1.0000   1.0000   1.0000   1.0000   1.0000   1.0000   1.0000
     1.0000   1.0000   1.0000   1.0000   1.0000   1.0000   1.0000   1.0000
     1.0000   1.0000   1.0000   1.0000   1.0000   1.0000   1.0000   1.0000
     1.0000   1.0000   1.0000   1.0000   1.0000   1.0000   1.0000   1.0000
     1.0000   1.0000

          k = 0.7167-0.0000-0.1976 (  5282 PWs)   bands (ev):

   -45.7756 -45.7756 -33.7461 -33.7461 -22.2682 -22.2682 -22.1527 -22.1527
   -22.0061 -22.0061  -8.4309  -8.4309  -7.8693  -7.8693  -7.3482  -7.3482
     3.2698   3.2698   3.9597   3.9597   4.7190   4.7190   5.2076   5.2076
     5.8849   5.8849   6.7012   6.7012   7.0405   7.0405   7.4293   7.4293
     7.7888   7.7888

     occupation numbers 
     1.0000   1.0000   1.0000   1.0000   1.0000   1.0000   1.0000   1.0000
     1.0000   1.0000   1.0000   1.0000   1.0000   1.0000   1.0000   1.0000
     1.0000   1.0000   1.0000   1.0000   1.0000   1.0000   1.0000   1.0000
     1.0000   1.0000   1.0000   1.0000   1.0000   1.0000   1.0000   1.0000
     1.0000   1.0000

          k = 0.5375 0.3103-0.1976 (  5280 PWs)   bands (ev):

   -45.7788 -45.7725 -33.7468 -33.7454 -22.2797 -22.2711 -22.2328 -22.0756
   -22.0100 -21.9800  -8.6432  -8.3469  -8.2395  -7.4143  -7.3428  -7.2617
     3.2634   3.3760   3.3917   3.7071   4.6431   4.9879   5.3192   5.5666
     6.0193   6.1889   6.6598   6.8516   6.9389   6.9503   7.2734   7.3729
     7.5029   7.8815

     occupation numbers 
     1.0000   1.0000   1.0000   1.0000   1.0000   1.0000   1.0000   1.0000
     1.0000   1.0000   1.0000   1.0000   1.0000   1.0000   1.0000   1.0000
     1.0000   1.0000   1.0000   1.0000   1.0000   1.0000   1.0000   1.0000
     1.0000   1.0000   1.0000   1.0000   1.0000   1.0000   1.0000   1.0000
     1.0000   1.0000

          k = 0.0000-0.0000 0.3951 (  5271 PWs)   bands (ev):

   -45.7812 -45.7703 -33.7470 -33.7450 -22.2287 -22.2287 -22.1332 -22.1243
   -22.1243 -22.0061  -8.6784  -8.0912  -8.0912  -7.7632  -7.3894  -7.3894
     3.6738   3.6738   3.9273   4.3321   4.3321   5.0184   5.0184   5.0390
     5.1006   6.0332   6.0332   6.4406   7.0561   7.4591   7.4591   7.5298
     7.9119   7.9119

     occupation numbers 
     1.0000   1.0000   1.0000   1.0000   1.0000   1.0000   1.0000   1.0000
     1.0000   1.0000   1.0000   1.0000   1.0000   1.0000   1.0000   1.0000
     1.0000   1.0000   1.0000   1.0000   1.0000   1.0000   1.0000   1.0000
     1.0000   1.0000   1.0000   1.0000   1.0000   1.0000   1.0000   1.0000
     1.0000   1.0000

          k = 0.0000 1.0345 0.0659 (  5292 PWs)   bands (ev):

   -45.7789 -45.7726 -33.7466 -33.7454 -22.2620 -22.1833 -22.1717 -22.1404
   -22.0876 -22.0038  -8.5804  -8.0393  -7.9819  -7.8149  -7.6963  -7.2873
     3.5028   3.8193   4.0795   4.3932   4.4506   4.6757   4.9663   5.3082
     5.4197   5.4862   6.0810   6.6729   7.0380   7.0843   7.5450   7.6538
     7.7293   7.7821

     occupation numbers 
     1.0000   1.0000   1.0000   1.0000   1.0000   1.0000   1.0000   1.0000
     1.0000   1.0000   1.0000   1.0000   1.0000   1.0000   1.0000   1.0000
     1.0000   1.0000   1.0000   1.0000   1.0000   1.0000   1.0000   1.0000
     1.0000   1.0000   1.0000   1.0000   1.0000   1.0000   1.0000   1.0000
     1.0000   1.0000

          k = 0.0000 0.8276 0.1317 (  5271 PWs)   bands (ev):

   -45.7757 -45.7757 -33.7461 -33.7460 -22.2826 -22.2400 -22.1921 -22.1158
   -22.0269 -21.9935  -8.4980  -8.3719  -8.0250  -7.6420  -7.5183  -7.2683
     3.2369   3.6223   3.7690   4.2119   4.5052   4.5805   5.3119   5.4374
     5.8818   5.9703   6.4850   6.5066   6.7648   7.0999   7.3723   7.4218
     7.5867   7.8762

     occupation numbers 
     1.0000   1.0000   1.0000   1.0000   1.0000   1.0000   1.0000   1.0000
     1.0000   1.0000   1.0000   1.0000   1.0000   1.0000   1.0000   1.0000
     1.0000   1.0000   1.0000   1.0000   1.0000   1.0000   1.0000   1.0000
     1.0000   1.0000   1.0000   1.0000   1.0000   1.0000   1.0000   1.0000
     1.0000   1.0000

          k = 0.8959 0.5172-0.2634 (  5287 PWs)   bands (ev):

   -45.7775 -45.7739 -33.7464 -33.7457 -22.2360 -22.2244 -22.1929 -22.1183
   -22.0518 -22.0258  -8.4623  -8.2362  -8.0340  -7.6146  -7.5927  -7.4658
     3.7648   3.7977   3.9368   4.3781   4.5615   4.6135   4.8270   5.1063
     5.5238   5.8025   6.1716   6.3120   7.1202   7.2082   7.3797   7.5729
     7.6110   7.8513

     occupation numbers 
     1.0000   1.0000   1.0000   1.0000   1.0000   1.0000   1.0000   1.0000
     1.0000   1.0000   1.0000   1.0000   1.0000   1.0000   1.0000   1.0000
     1.0000   1.0000   1.0000   1.0000   1.0000   1.0000   1.0000   1.0000
     1.0000   1.0000   1.0000   1.0000   1.0000   1.0000   1.0000   1.0000
     1.0000   1.0000

          k = 0.8959 0.3103-0.1976 (  5288 PWs)   bands (ev):

   -45.7757 -45.7757 -33.7461 -33.7461 -22.2667 -22.2667 -22.1508 -22.1508
   -22.0074 -22.0074  -8.4528  -8.4528  -7.8629  -7.8629  -7.3505  -7.3505
     3.4435   3.4435   3.9072   3.9072   4.8832   4.8832   5.1004   5.1004
     5.8868   5.8868   6.4890   6.4890   6.9891   6.9891   7.3297   7.3297
     7.7419   7.7419

     occupation numbers 
     1.0000   1.0000   1.0000   1.0000   1.0000   1.0000   1.0000   1.0000
     1.0000   1.0000   1.0000   1.0000   1.0000   1.0000   1.0000   1.0000
     1.0000   1.0000   1.0000   1.0000   1.0000   1.0000   1.0000   1.0000
     1.0000   1.0000   1.0000   1.0000   1.0000   1.0000   1.0000   1.0000
     1.0000   1.0000

          k = 0.0000 0.0000-0.5927 (  5260 PWs)   bands (ev):

   -45.7757 -45.7757 -33.7460 -33.7460 -22.1771 -22.1771 -22.1771 -22.1771
   -22.0709 -22.0709  -8.2339  -8.2339  -7.7514  -7.7514  -7.7514  -7.7514
     4.2730   4.2730   4.2730   4.2730   4.4520   4.4520   5.1611   5.1611
     5.1611   5.1611   5.7127   5.7127   7.3492   7.3492   7.6870   7.6870
     7.6870   7.6870

     occupation numbers 
     1.0000   1.0000   1.0000   1.0000   1.0000   1.0000   1.0000   1.0000
     1.0000   1.0000   1.0000   1.0000   1.0000   1.0000   1.0000   1.0000
     1.0000   1.0000   1.0000   1.0000   1.0000   1.0000   1.0000   1.0000
     1.0000   1.0000   1.0000   1.0000   1.0000   1.0000   1.0000   1.0000
     1.0000   1.0000

     highest occupied level (ev):     8.0098

!    total energy              =    -936.82248489 Ry
     estimated scf accuracy    <          3.2E-13 Ry

     The total energy is the sum of the following terms:
     one-electron contribution =    -130.65772671 Ry
     hartree contribution      =     102.19106053 Ry
     xc contribution           =    -108.66427724 Ry
     ewald contribution        =    -336.23306718 Ry
     one-center paw contrib.   =    -463.45847428 Ry
      -> PAW hartree energy AE =     298.35812565 Ry
      -> PAW hartree energy PS =    -296.81843819 Ry
      -> PAW xc energy AE      =    -561.38423382 Ry
      -> PAW xc energy PS      =      96.38607209 Ry
      -> total E_H with PAW    =     103.73074799 Ry
      -> total E_XC with PAW   =    -573.66243898 Ry

     convergence has been achieved in  29 iterations

     Forces acting on atoms (cartesian axes, Ry/au):

     atom    1 type  1   force =    -0.00000000    0.00000000    0.00104190
     atom    2 type  1   force =     0.00000000    0.00000000    0.00104190
     atom    3 type  2   force =    -0.02791128    0.00959403    0.00514143
     atom    4 type  2   force =     0.00564697   -0.02896890    0.00514143
     atom    5 type  2   force =     0.02226432    0.01937487    0.00514143
     atom    6 type  2   force =    -0.00564697   -0.02896890    0.00514143
     atom    7 type  2   force =     0.02791128    0.00959403    0.00514143
     atom    8 type  2   force =    -0.02226432    0.01937487    0.00514143
     atom    9 type  3   force =    -0.00000000   -0.00000000   -0.01646618
     atom   10 type  3   force =    -0.00000000   -0.00000000   -0.01646618
     The non-local contrib.  to forces
     atom    1 type  1   force =     0.00000000    0.00000000    0.01550279
     atom    2 type  1   force =    -0.00000000   -0.00000000    0.01550279
     atom    3 type  2   force =     0.29608633   -0.15723275   -0.04801568
     atom    4 type  2   force =    -0.01187561    0.33503466   -0.04801568
     atom    5 type  2   force =    -0.28421072   -0.17780191   -0.04801568
     atom    6 type  2   force =     0.01187561    0.33503466   -0.04801568
     atom    7 type  2   force =    -0.29608633   -0.15723275   -0.04801568
     atom    8 type  2   force =     0.28421072   -0.17780191   -0.04801568
     atom    9 type  3   force =     0.00000000   -0.00000000   -0.02519066
     atom   10 type  3   force =     0.00000000   -0.00000000   -0.02519066
     The ionic contribution  to forces
     atom    1 type  1   force =     0.00000000    0.00000000   -1.09093411
     atom    2 type  1   force =    -0.00000000   -0.00000000   -1.09093411
     atom    3 type  2   force =    -3.82859377    2.79298450    0.43701978
     atom    4 type  2   force =    -0.50449865   -4.71215172    0.43701978
     atom    5 type  2   force =     4.33309242    1.91916721    0.43701978
     atom    6 type  2   force =     0.50449865   -4.71215172    0.43701978
     atom    7 type  2   force =     3.82859377    2.79298450    0.43701978
     atom    8 type  2   force =    -4.33309242    1.91916721    0.43701978
     atom    9 type  3   force =     0.00000000   -0.00000000   -0.22012524
     atom   10 type  3   force =     0.00000000   -0.00000000   -0.22012525
     The local contribution  to forces
     atom    1 type  1   force =    -0.00000000   -0.00000000    1.07647325
     atom    2 type  1   force =    -0.00000000    0.00000000    1.07647325
     atom    3 type  2   force =     3.50524885   -2.62735234   -0.38371950
     atom    4 type  2   force =     0.52272945    4.34931073   -0.38371950
     atom    5 type  2   force =    -4.02797830   -1.72195837   -0.38371950
     atom    6 type  2   force =    -0.52272945    4.34931072   -0.38371950
     atom    7 type  2   force =    -3.50524885   -2.62735235   -0.38371950
     atom    8 type  2   force =     4.02797830   -1.72195837   -0.38371950
     atom    9 type  3   force =    -0.00000000    0.00000000    0.23304761
     atom   10 type  3   force =    -0.00000000    0.00000000    0.23304761
     The core correction contribution to forces
     atom    1 type  1   force =     0.00000000    0.00000000    0.00000000
     atom    2 type  1   force =     0.00000000    0.00000000    0.00000000
     atom    3 type  2   force =    -0.00065255    0.00119456   -0.00014316
     atom    4 type  2   force =    -0.00070825   -0.00116241   -0.00014316
     atom    5 type  2   force =     0.00136080   -0.00003216   -0.00014316
     atom    6 type  2   force =     0.00070825   -0.00116241   -0.00014316
     atom    7 type  2   force =     0.00065255    0.00119456   -0.00014316
     atom    8 type  2   force =    -0.00136080   -0.00003216   -0.00014316
     atom    9 type  3   force =    -0.00000000    0.00000000   -0.00419785
     atom   10 type  3   force =     0.00000000   -0.00000000   -0.00419785
     The Hubbard contrib.    to forces
     atom    1 type  1   force =     0.00000000    0.00000000    0.00000000
     atom    2 type  1   force =     0.00000000    0.00000000    0.00000000
     atom    3 type  2   force =     0.00000000    0.00000000    0.00000000
     atom    4 type  2   force =     0.00000000    0.00000000    0.00000000
     atom    5 type  2   force =     0.00000000    0.00000000    0.00000000
     atom    6 type  2   force =     0.00000000    0.00000000    0.00000000
     atom    7 type  2   force =     0.00000000    0.00000000    0.00000000
     atom    8 type  2   force =     0.00000000    0.00000000    0.00000000
     atom    9 type  3   force =     0.00000000    0.00000000    0.00000000
     atom   10 type  3   force =     0.00000000    0.00000000    0.00000000
     The SCF correction term to forces
     atom    1 type  1   force =     0.00000000   -0.00000000   -0.00000001
     atom    2 type  1   force =    -0.00000000   -0.00000000   -0.00000001
     atom    3 type  2   force =    -0.00000014    0.00000007    0.00000001
     atom    4 type  2   force =     0.00000001   -0.00000015    0.00000001
     atom    5 type  2   force =     0.00000013    0.00000009    0.00000001
     atom    6 type  2   force =    -0.00000001   -0.00000015    0.00000001
     atom    7 type  2   force =     0.00000014    0.00000007    0.00000001
     atom    8 type  2   force =    -0.00000013    0.00000009    0.00000001
     atom    9 type  3   force =     0.00000000   -0.00000000   -0.00000001
     atom   10 type  3   force =    -0.00000000    0.00000000   -0.00000001

     Total force =     0.077004     Total SCF correction =     0.000000


     Computing stress (Cartesian axis) and pressure

          total   stress  (Ry/bohr**3)                   (kbar)     P=      130.84
   0.00096867   0.00000000   0.00000000          142.50        0.00        0.00
   0.00000000   0.00096867   0.00000000            0.00      142.50        0.00
  -0.00000000   0.00000000   0.00073098           -0.00        0.00      107.53

     kinetic stress (kbar)  28348.17     -0.00     -0.00
                               -0.00  28348.17      0.00
                               -0.00      0.00  28272.69

     local   stress (kbar) -12977.28     -0.00      0.00
                               -0.00 -12977.28     -0.00
                                0.00     -0.00 -11268.17

     nonloc. stress (kbar)   7345.20      0.00     -0.00
                                0.00   7345.20      0.00
                                0.00      0.00   7392.90

     hartree stress (kbar)   7561.68     -0.00      0.00
                               -0.00   7561.68      0.00
                                0.00      0.00   7191.64

     exc-cor stress (kbar)   1113.26      0.00     -0.00
                                0.00   1113.26      0.00
                               -0.00      0.00   1110.20

     corecor stress (kbar)  -7222.14      0.00      0.00
                                0.00  -7222.14      0.00
                                0.00      0.00  -7222.84

     ewald   stress (kbar) -24026.39      0.00     -0.00
                                0.00 -24026.39      0.00
                               -0.00      0.00 -25368.89

     hubbard stress (kbar)      0.00      0.00      0.00
                                0.00      0.00      0.00
                                0.00      0.00      0.00

     DFT-D   stress (kbar)      0.00      0.00      0.00
                                0.00      0.00      0.00
                                0.00      0.00      0.00

     XDM     stress (kbar)      0.00      0.00      0.00
                                0.00      0.00      0.00
                                0.00      0.00      0.00

     dft-nl  stress (kbar)      0.00      0.00      0.00
                                0.00      0.00      0.00
                                0.00      0.00      0.00

     TS-vdW  stress (kbar)      0.00      0.00      0.00
                                0.00      0.00      0.00
                                0.00      0.00      0.00

     MDB     stress (kbar)      0.00      0.00      0.00
                                0.00      0.00      0.00
                                0.00      0.00      0.00

     3D-RISM stress (kbar)      0.00      0.00      0.00
                                0.00      0.00      0.00
                                0.00      0.00      0.00

     Message from routine punch:
     Nothing written, as per user request (disk_io='none')
 
     init_run     :      0.55s CPU      0.77s WALL (       1 calls)
     electrons    :     22.03s CPU     22.48s WALL (       1 calls)
     forces       :      0.07s CPU      0.09s WALL (       1 calls)
     stress       :      0.15s CPU      0.16s WALL (       1 calls)

     Called by init_run:
     wfcinit      :      0.17s CPU      0.28s WALL (       1 calls)
     wfcinit:atom :      0.02s CPU      0.03s WALL (      32 calls)
     wfcinit:wfcr :      0.12s CPU      0.20s WALL (      32 calls)
     potinit      :      0.10s CPU      0.11s WALL (       1 calls)
     hinit0       :      0.20s CPU      0.24s WALL (       1 calls)

     Called by electrons:
     c_bands      :     17.26s CPU     17.61s WALL (      29 calls)
     sum_band     :      1.97s CPU      2.00s WALL (      29 calls)
     v_of_rho     :      0.11s CPU      0.13s WALL (      30 calls)
     v_h          :      0.05s CPU      0.05s WALL (      30 calls)
     v_xc         :      0.07s CPU      0.08s WALL (      32 calls)
     newd         :      0.28s CPU      0.31s WALL (      30 calls)
     PAW_pot      :      2.19s CPU      2.23s WALL (      30 calls)
     mix_rho      :      0.20s CPU      0.21s WALL (      29 calls)

     Called by c_bands:
     init_us_2    :      0.62s CPU      0.63s WALL (    1952 calls)
     cegterg      :     15.91s CPU     16.21s WALL (     928 calls)

     Called by sum_band:
     sum_band:wei :      0.00s CPU      0.00s WALL (      29 calls)
     sum_band:loo :      1.52s CPU      1.54s WALL (      29 calls)
     sum_band:buf :      0.25s CPU      0.26s WALL (     928 calls)
     sum_band:ini :      0.29s CPU      0.30s WALL (     928 calls)
     sum_band:cal :      0.02s CPU      0.02s WALL (     928 calls)
     sum_band:bec :      0.35s CPU      0.36s WALL (     928 calls)
     addusdens    :      0.30s CPU      0.31s WALL (      29 calls)
                                        0.31s GPU  (      29 calls)
     addusd:skk   :      0.01s CPU      0.01s WALL (      87 calls)
                                        0.01s GPU  (      87 calls)

     Called by *egterg:
     cdiaghg      :      7.20s CPU      7.37s WALL (    5766 calls)
                                        7.31s GPU  (    5766 calls)
     cegterg:over :      0.44s CPU      0.44s WALL (    4838 calls)
     cegterg:upda :      1.54s CPU      1.55s WALL (    4838 calls)
     cegterg:last :      0.21s CPU      0.22s WALL (    3397 calls)
     h_psi        :      4.27s CPU      4.53s WALL (    5798 calls)
     s_psi        :      1.52s CPU      1.55s WALL (    5798 calls)
     g_psi        :      0.10s CPU      0.10s WALL (    4838 calls)

     Called by h_psi:
     h_psi:calbec :      0.10s CPU      0.13s WALL (    5798 calls)
     vloc_psi     :      2.73s CPU      3.01s WALL (    5798 calls)
                                        2.95s GPU  (    5798 calls)
     add_vuspsi   :      1.28s CPU      1.30s WALL (    5798 calls)

     General routines
     calbec       :      0.11s CPU      0.14s WALL (    7270 calls)
     fft          :      0.04s CPU      0.09s WALL (     413 calls)
                                        0.04s GPU  (     383 calls)
     ffts         :      0.02s CPU      0.02s WALL (      59 calls)
                                        0.00s GPU  (      29 calls)
     fftw         :      0.19s CPU      1.82s WALL (   25644 calls)
                                        1.58s GPU  (   25644 calls)
     interpolate  :      0.08s CPU      0.09s WALL (      30 calls)
 
     Parallel routines

     PAW routines
     PAW_pot      :      2.19s CPU      2.23s WALL (      30 calls)
     PAW_symme    :      0.00s CPU      0.00s WALL (      59 calls)
 
     PWSCF        :     23.14s CPU     23.86s WALL

 
   This run was terminated on:  17: 6: 0  29Nov2025            

=------------------------------------------------------------------------------=
   JOB DONE.
=------------------------------------------------------------------------------=
