&CONTROL
   calculation      = 'scf'
   verbosity        = 'medium'
   tstress          = .true.
   tprnfor          = .true.
   disk_io          = 'none'
   pseudo_dir       = '/home/qhossain/SSSP_1.3.0_PBEsol_efficiency'
/
&SYSTEM
   ecutwfc          = 60
   ecutrho          = 400
   nosym            = .false.
   occupations      = 'fixed'
   ntyp             = 3
   nat              = 10
   ibrav            = 0
/
&ELECTRONS
   conv_thr         = 1e-12
/
&IONS
/
&CELL
/
&FCP
/
&RISM
/
ATOMIC_SPECIES
Li 6.94 li_pbesol_v1.4.uspp.F.UPF
O 15.999 O.pbesol-n-kjpaw_psl.0.1.UPF
Nb 92.90637 Nb.pbesol-spn-kjpaw_psl.0.3.0.UPF

K_POINTS automatic
6 6 6  0 0 0

CELL_PARAMETERS angstrom
2.51394874949604 1.45142898725044 4.55977840922959
-2.51394874949604 1.45142898725044 4.55977840922959
0.00000000000000 -2.90285797450095 4.55977840922959

ATOMIC_POSITIONS angstrom
Li -0.0000000000 -0.0000000000 10.7167871883  
Li 0.0000000000 -0.0000000000 3.8771195745  
O -1.6113933648 -0.2055149696 7.7439266260  
O 0.9836778669 -1.2927501047 7.7439266260  
O 0.6277154979 1.4982650742 7.7439266260  
O 1.5302708826 0.1586788826 5.4640374214  
O -0.9025553846 1.2459140177 5.4640374214  
O -0.6277154979 -1.4045929003 5.4640374214  
Nb -0.0000000000 -0.0000000000 6.8543882949  
Nb -0.0000000000 -0.0000000000 0.0147206811  

