
     Program PWSCF v.7.5 starts on 29Nov2025 at 17: 6: 3 

     This program is part of the open-source Quantum ESPRESSO suite
     for quantum simulation of materials; please cite
         "P. Giannozzi et al., J. Phys.:Condens. Matter 21 395502 (2009);
         "P. Giannozzi et al., J. Phys.:Condens. Matter 29 465901 (2017);
         "P. Giannozzi et al., J. Chem. Phys. 152 154105 (2020);
          URL http://www.quantum-espresso.org", 
     in publications or presentations arising from this work. More details at
     http://www.quantum-espresso.org/quote

     Parallel version (MPI & OpenMP), running on       1 processor cores
     Number of MPI processes:                 1
     Threads/MPI process:                     1

     MPI processes distributed on     1 nodes
     1511199 MiB available memory on the printing compute node when the environment starts
 
     Reading input from espresso.pwi
Warning: card &CELL ignored
Warning: card &FCP ignored
Warning: card &RISM ignored

     Current dimensions of program PWSCF are:
     Max number of different atomic species (ntypx) = 10
     Max number of k-points (npk) =  40000
     Max angular momentum in pseudopotentials (lmaxx) =  4
     file O.pbesol-n-kjpaw_psl.0.1.UPF: wavefunction(s)  2P renormalized
     file Nb.pbesol-spn-kjpaw_psl.0.3.0.UPF: wavefunction(s)  4S 4P renormalized
     Message from routine setup:
     using ibrav=0 with symmetry is DISCOURAGED, use correct ibrav instead
 
     Subspace diagonalization in iterative solution of the eigenvalue problem:
     a serial algorithm will be used

 
     G-vector sticks info
     --------------------
     sticks:   dense  smooth     PW     G-vecs:    dense   smooth      PW
     Sum        2885    1729    497                98671    45805    7223
 
     Using Slab Decomposition
 


     bravais-lattice index     =            0
     lattice parameter (alat)  =      10.4518  a.u.
     unit-cell volume          =     729.9962 (a.u.)^3
     number of atoms/cell      =           10
     number of atomic types    =            3
     number of electrons       =        68.00
     number of Kohn-Sham states=           34
     kinetic-energy cutoff     =      60.0000  Ry
     charge density cutoff     =     400.0000  Ry
     scf convergence threshold =      1.0E-12
     mixing beta               =       0.7000
     number of iterations used =            8  plain     mixing
     Exchange-correlation= SLA  PW   PSX  PSC
                           (   1   4  10   8   0   0   0)

     GPU acceleration is ACTIVE.  1 visible GPUs per MPI rank


     GPU used by master process:

        Device Number: 0
        Device name: NVIDIA B200
        Compute capability : 100
        Ratio of single to double precision performance  : 16
        Memory Clock Rate (KHz): 3996000
        Memory Bus Width (bits): 7680
        Peak Memory Bandwidth (GB/s): ******

     celldm(1)=  10.451830  celldm(2)=   0.000000  celldm(3)=   0.000000
     celldm(4)=   0.000000  celldm(5)=   0.000000  celldm(6)=   0.000000

     crystal axes: (cart. coord. in units of alat)
               a(1) = (   0.468445   0.270457   0.841078 )  
               a(2) = (  -0.468445   0.270457   0.841078 )  
               a(3) = (   0.000000  -0.540913   0.841078 )  

     reciprocal axes: (cart. coord. in units 2 pi/alat)
               b(1) = (  1.067362  0.616242  0.396317 )  
               b(2) = ( -1.067362  0.616242  0.396317 )  
               b(3) = ( -0.000000 -1.232483  0.396317 )  


     PseudoPot. # 1 for Li read from file:
     /home/qhossain/SSSP_1.3.0_PBEsol_efficiency/li_pbesol_v1.4.uspp.F.UPF
     MD5 check sum: aa28d9aeea6a965f2dc95ee9517b3536
     Pseudo is Ultrasoft, Zval =  3.0
     Generated by new atomic code, or converted to UPF format
     Using radial grid of  751 points,  5 beta functions with: 
                l(1) =   0
                l(2) =   0
                l(3) =   0
                l(4) =   1
                l(5) =   1
     Q(r) pseudized with 10 coefficients,  rinner =    1.150   1.150   1.150


     PseudoPot. # 2 for O  read from file:
     /home/qhossain/SSSP_1.3.0_PBEsol_efficiency/O.pbesol-n-kjpaw_psl.0.1.UPF
     MD5 check sum: 81d73d1479e654e5638b0319f0d6c2c7
     Pseudo is Projector augmented-wave + core cor, Zval =  6.0
     Generated using "atomic" code by A. Dal Corso  v.6.0 svn rev. 13079
     Shape of augmentation charge: BESSEL
     Using radial grid of 1095 points,  4 beta functions with: 
                l(1) =   0
                l(2) =   0
                l(3) =   1
                l(4) =   1
     Q(r) pseudized with 0 coefficients 


     PseudoPot. # 3 for Nb read from file:
     /home/qhossain/SSSP_1.3.0_PBEsol_efficiency/Nb.pbesol-spn-kjpaw_psl.0.3.0.UPF
     MD5 check sum: 3501bca1474143575298708b2d32ca28
     Pseudo is Projector augmented-wave + core cor, Zval = 13.0
     Generated using "atomic" code by A. Dal Corso  v.6.0 svn rev. 13079
     Shape of augmentation charge: PSQ
     Using radial grid of 1227 points,  6 beta functions with: 
                l(1) =   0
                l(2) =   0
                l(3) =   1
                l(4) =   1
                l(5) =   2
                l(6) =   2
     Q(r) pseudized with 0 coefficients 


     atomic species   valence    mass     pseudopotential
     Li                3.00     6.94000     Li( 1.00)
     O                 6.00    15.99900     O ( 1.00)
     Nb               13.00    92.90637     Nb( 1.00)

      6 Sym. Ops. (no inversion) found ( 3 have fractional translation)


                                    s                        frac. trans.

      isym =  1     identity                                     

 cryst.   s( 1) = (     1          0          0      )
                  (     0          1          0      )
                  (     0          0          1      )

 cart.    s( 1) = (  1.0000000 -0.0000000 -0.0000000 )
                  ( -0.0000000  1.0000000 -0.0000000 )
                  ( -0.0000000  0.0000000  1.0000000 )


      isym =  2     120 deg rotation - cryst. axis [0,0,1]       

 cryst.   s( 2) = (     0          1          0      )
                  (     0          0          1      )
                  (     1          0          0      )

 cart.    s( 2) = ( -0.5000000 -0.8660254 -0.0000000 )
                  (  0.8660254 -0.5000000 -0.0000000 )
                  ( -0.0000000 -0.0000000  1.0000000 )


      isym =  3     120 deg rotation - cryst. axis [0,0,-1]      

 cryst.   s( 3) = (     0          0          1      )
                  (     1          0          0      )
                  (     0          1          0      )

 cart.    s( 3) = ( -0.5000000  0.8660254  0.0000000 )
                  ( -0.8660254 -0.5000000 -0.0000000 )
                  (  0.0000000 -0.0000000  1.0000000 )


      isym =  4     inv. 180 deg rotation - cart. axis [1,0,0]   

 cryst.   s( 4) = (     0          1          0      )    f =(  0.5000000 )
                  (     1          0          0      )       (  0.5000000 )
                  (     0          0          1      )       (  0.5000000 )

 cart.    s( 4) = ( -1.0000000 -0.0000000 -0.0000000 )    f =(  0.0000000 )
                  (  0.0000000  1.0000000 -0.0000000 )       ( -0.0000000 )
                  (  0.0000000  0.0000000  1.0000000 )       (  1.2616176 )


      isym =  5     inv. 180 deg rotation - cryst. axis [0,1,0]  

 cryst.   s( 5) = (     1          0          0      )    f =(  0.5000000 )
                  (     0          0          1      )       (  0.5000000 )
                  (     0          1          0      )       (  0.5000000 )

 cart.    s( 5) = (  0.5000000  0.8660254  0.0000000 )    f =(  0.0000000 )
                  (  0.8660254 -0.5000000 -0.0000000 )       ( -0.0000000 )
                  ( -0.0000000 -0.0000000  1.0000000 )       (  1.2616176 )


      isym =  6     inv. 180 deg rotation - cryst. axis [1,1,0]  

 cryst.   s( 6) = (     0          0          1      )    f =(  0.5000000 )
                  (     0          1          0      )       (  0.5000000 )
                  (     1          0          0      )       (  0.5000000 )

 cart.    s( 6) = (  0.5000000 -0.8660254 -0.0000000 )    f =( -0.0000000 )
                  ( -0.8660254 -0.5000000 -0.0000000 )       ( -0.0000000 )
                  (  0.0000000 -0.0000000  1.0000000 )       (  1.2616176 )


   Cartesian axes

     site n.     atom                  positions (alat units)
         1        Li     tau(   1) = (   0.0000000  -0.0000000   1.9767754  )
         2        Li     tau(   2) = (  -0.0000000  -0.0000000   0.7151579  )
         3        O      tau(   3) = (  -0.3002641  -0.0382953   1.4284135  )
         4        O      tau(   4) = (   0.1832967  -0.2408887   1.4284135  )
         5        O      tau(   5) = (   0.1169674   0.2791840   1.4284135  )
         6        O      tau(   6) = (   0.2851479   0.0295679   1.0078744  )
         7        O      tau(   7) = (  -0.1681805   0.2321613   1.0078744  )
         8        O      tau(   8) = (  -0.1169674  -0.2617293   1.0078744  )
         9        Nb     tau(   9) = (  -0.0000000  -0.0000000   1.2643329  )
        10        Nb     tau(  10) = (  -0.0000000  -0.0000000   0.0027153  )

   Crystallographic axes

     site n.     atom                  positions (cryst. coord.)
         1        Li     tau(   1) = (  0.7834289  0.7834289  0.7834289  )
         2        Li     tau(   2) = (  0.2834289  0.2834289  0.2834289  )
         3        O      tau(   3) = (  0.2220144  0.8629954  0.6133023  )
         4        O      tau(   4) = (  0.6133023  0.2220144  0.8629954  )
         5        O      tau(   5) = (  0.8629954  0.6133023  0.2220144  )
         6        O      tau(   6) = (  0.7220144  0.1133023  0.3629954  )
         7        O      tau(   7) = (  0.3629954  0.7220144  0.1133023  )
         8        O      tau(   8) = (  0.1133023  0.3629954  0.7220144  )
         9        Nb     tau(   9) = (  0.5010761  0.5010761  0.5010761  )
        10        Nb     tau(  10) = (  0.0010761  0.0010761  0.0010761  )

     number of k points=    32
                       cart. coord. in units 2pi/alat
        k(    1) = (   0.0000000   0.0000000   0.0000000), wk =   0.0092593
        k(    2) = (  -0.0000000  -0.2054139   0.0660528), wk =   0.0555556
        k(    3) = (  -0.0000000  -0.4108278   0.1321055), wk =   0.0555556
        k(    4) = (   0.0000000   0.6162417  -0.1981583), wk =   0.0277778
        k(    5) = (  -0.1778937  -0.1027070   0.1321055), wk =   0.0555556
        k(    6) = (  -0.1778937  -0.3081209   0.1981583), wk =   0.1111111
        k(    7) = (  -0.1778937   0.7189487  -0.1321055), wk =   0.1111111
        k(    8) = (  -0.1778937   0.5135348  -0.0660528), wk =   0.1111111
        k(    9) = (  -0.1778937   0.3081209   0.0000000), wk =   0.0555556
        k(   10) = (  -0.3557873  -0.2054139   0.2642111), wk =   0.0555556
        k(   11) = (  -0.3557873   0.8216556  -0.0660528), wk =   0.1111111
        k(   12) = (  -0.3557873   0.6162417   0.0000000), wk =   0.0555556
        k(   13) = (   0.5336810   0.3081209  -0.3963166), wk =   0.0277778
        k(   14) = (  -0.0000000  -0.0000000   0.1981583), wk =   0.0185185
        k(   15) = (  -0.0000000  -0.2054139   0.2642111), wk =   0.0555556
        k(   16) = (  -0.0000000   0.8216556  -0.0660528), wk =   0.0555556
        k(   17) = (  -0.0000000   0.6162417   0.0000000), wk =   0.0555556
        k(   18) = (  -0.0000000   0.4108278   0.0660528), wk =   0.0555556
        k(   19) = (  -0.1778937  -0.1027070   0.3302638), wk =   0.0555556
        k(   20) = (  -0.1778937   0.9243626   0.0000000), wk =   0.1111111
        k(   21) = (  -0.1778937   0.7189487   0.0660528), wk =   0.1111111
        k(   22) = (  -0.1778937   0.5135348   0.1321055), wk =   0.1111111
        k(   23) = (   0.7115747   0.4108278  -0.3302638), wk =   0.0555556
        k(   24) = (   0.7115747   0.2054139  -0.2642111), wk =   0.1111111
        k(   25) = (   0.7115747  -0.0000000  -0.1981583), wk =   0.0555556
        k(   26) = (   0.5336810   0.3081209  -0.1981583), wk =   0.0555556
        k(   27) = (  -0.0000000  -0.0000000   0.3963166), wk =   0.0185185
        k(   28) = (  -0.0000000   1.0270696   0.0660528), wk =   0.0555556
        k(   29) = (  -0.0000000   0.8216556   0.1321055), wk =   0.0555556
        k(   30) = (   0.8894683   0.5135348  -0.2642111), wk =   0.0555556
        k(   31) = (   0.8894683   0.3081209  -0.1981583), wk =   0.0555556
        k(   32) = (   0.0000000   0.0000000  -0.5944749), wk =   0.0092593

                       cryst. coord.
        k(    1) = (   0.0000000   0.0000000   0.0000000), wk =   0.0092593
        k(    2) = (  -0.0000000  -0.0000000   0.1666667), wk =   0.0555556
        k(    3) = (  -0.0000000  -0.0000000   0.3333333), wk =   0.0555556
        k(    4) = (   0.0000000   0.0000000  -0.5000000), wk =   0.0277778
        k(    5) = (   0.0000000   0.1666667   0.1666667), wk =   0.0555556
        k(    6) = (  -0.0000000   0.1666667   0.3333333), wk =   0.1111111
        k(    7) = (  -0.0000000   0.1666667  -0.5000000), wk =   0.1111111
        k(    8) = (   0.0000000   0.1666667  -0.3333333), wk =   0.1111111
        k(    9) = (   0.0000000   0.1666667  -0.1666667), wk =   0.0555556
        k(   10) = (   0.0000000   0.3333333   0.3333333), wk =   0.0555556
        k(   11) = (   0.0000000   0.3333333  -0.5000000), wk =   0.1111111
        k(   12) = (   0.0000000   0.3333333  -0.3333333), wk =   0.0555556
        k(   13) = (  -0.0000000  -0.5000000  -0.5000000), wk =   0.0277778
        k(   14) = (   0.1666667   0.1666667   0.1666667), wk =   0.0185185
        k(   15) = (   0.1666667   0.1666667   0.3333333), wk =   0.0555556
        k(   16) = (   0.1666667   0.1666667  -0.5000000), wk =   0.0555556
        k(   17) = (   0.1666667   0.1666667  -0.3333333), wk =   0.0555556
        k(   18) = (   0.1666667   0.1666667  -0.1666667), wk =   0.0555556
        k(   19) = (   0.1666667   0.3333333   0.3333333), wk =   0.0555556
        k(   20) = (   0.1666667   0.3333333  -0.5000000), wk =   0.1111111
        k(   21) = (   0.1666667   0.3333333  -0.3333333), wk =   0.1111111
        k(   22) = (   0.1666667   0.3333333  -0.1666667), wk =   0.1111111
        k(   23) = (   0.1666667  -0.5000000  -0.5000000), wk =   0.0555556
        k(   24) = (   0.1666667  -0.5000000  -0.3333333), wk =   0.1111111
        k(   25) = (   0.1666667  -0.5000000  -0.1666667), wk =   0.0555556
        k(   26) = (   0.1666667  -0.3333333  -0.3333333), wk =   0.0555556
        k(   27) = (   0.3333333   0.3333333   0.3333333), wk =   0.0185185
        k(   28) = (   0.3333333   0.3333333  -0.5000000), wk =   0.0555556
        k(   29) = (   0.3333333   0.3333333  -0.3333333), wk =   0.0555556
        k(   30) = (   0.3333333  -0.5000000  -0.5000000), wk =   0.0555556
        k(   31) = (   0.3333333  -0.5000000  -0.3333333), wk =   0.0555556
        k(   32) = (  -0.5000000  -0.5000000  -0.5000000), wk =   0.0092593

     Dense  grid:    98671 G-vectors     FFT dimensions: (  72,  72,  72)

     Smooth grid:    45805 G-vectors     FFT dimensions: (  54,  54,  54)

     Dynamical RAM for                 wfc:       2.97 MB

     Dynamical RAM for     wfc (w. buffer):      98.08 MB

     Dynamical RAM for           str. fact:       4.52 MB

     Dynamical RAM for           local pot:       0.00 MB

     Dynamical RAM for          nlocal pot:       8.92 MB

     Dynamical RAM for                qrad:       4.82 MB

     Dynamical RAM for          rho,v,vnew:      13.06 MB

     Dynamical RAM for               rhoin:       4.35 MB

     Dynamical RAM for            rho*nmix:      24.09 MB

     Dynamical RAM for           G-vectors:       6.00 MB

     Dynamical RAM for          h,s,v(r/c):       0.21 MB

     Dynamical RAM for          <psi|beta>:       0.05 MB

     Dynamical RAM for                 psi:       5.94 MB

     Dynamical RAM for                hpsi:       5.94 MB

     Dynamical RAM for                spsi:       5.94 MB

     Dynamical RAM for      wfcinit/wfcrot:       5.97 MB

     Dynamical RAM for           addusdens:     289.08 MB

     Dynamical RAM for          addusforce:     304.91 MB

     Dynamical RAM for         addusstress:     302.63 MB

     Estimated static dynamical RAM per process >     160.00 MB

     Estimated max dynamical RAM per process >     489.00 MB

     Check: negative core charge=   -0.000005

     Initial potential from superposition of free atoms

     starting charge      67.0945, renormalised to      68.0000
     Starting wfcs are   54 randomized atomic wfcs
     Checking if some PAW data can be deallocated... 

     total cpu time spent up to now is        1.2 secs

     per-process dynamical memory:   560.0 Mb

     Self-consistent Calculation
[tb_dev] Currently allocated     1.86E+00 Mbytes, locked:    0 /   3
[tb_pin] Currently allocated     0.00E+00 Mbytes, locked:    0 /   0

     iteration #  1     ecut=    60.00 Ry     beta= 0.70
     Davidson diagonalization with overlap

---- Real-time Memory Report at c_bands before calling an iterative solver
           987 MiB given to the printing process from OS
           546 MiB allocation reported by mallinfo(arena+hblkhd)
       1509246 MiB available memory on the node where the printing process lives
     GPU memory used/free/total (MiB): 2287 / 180354 / 182642
------------------
     ethr =  1.00E-02,  avg # of iterations =  1.1

     total cpu time spent up to now is        1.8 secs

     total energy              =    -934.41972294 Ry
     estimated scf accuracy    <       4.49347683 Ry
[tb_dev] Currently allocated     0.00E+00 Mbytes, locked:    0 /   0
[tb_pin] Currently allocated     0.00E+00 Mbytes, locked:    0 /   0

     iteration #  2     ecut=    60.00 Ry     beta= 0.70
     Davidson diagonalization with overlap

---- Real-time Memory Report at c_bands before calling an iterative solver
          1035 MiB given to the printing process from OS
           623 MiB allocation reported by mallinfo(arena+hblkhd)
       1509496 MiB available memory on the node where the printing process lives
     GPU memory used/free/total (MiB): 2287 / 180354 / 182642
------------------
     ethr =  6.61E-03,  avg # of iterations =  8.5

     total cpu time spent up to now is        2.9 secs

     total energy              =    -933.58435375 Ry
     estimated scf accuracy    <      17.28663576 Ry
[tb_dev] Currently allocated     0.00E+00 Mbytes, locked:    0 /   0
[tb_pin] Currently allocated     0.00E+00 Mbytes, locked:    0 /   0

     iteration #  3     ecut=    60.00 Ry     beta= 0.70
     Davidson diagonalization with overlap

---- Real-time Memory Report at c_bands before calling an iterative solver
          1040 MiB given to the printing process from OS
           627 MiB allocation reported by mallinfo(arena+hblkhd)
       1522046 MiB available memory on the node where the printing process lives
     GPU memory used/free/total (MiB): 2289 / 180352 / 182642
------------------
     ethr =  6.61E-03,  avg # of iterations =  6.3

     total cpu time spent up to now is        3.7 secs

     total energy              =    -936.74520900 Ry
     estimated scf accuracy    <       0.06260235 Ry
[tb_dev] Currently allocated     0.00E+00 Mbytes, locked:    0 /   0
[tb_pin] Currently allocated     0.00E+00 Mbytes, locked:    0 /   0

     iteration #  4     ecut=    60.00 Ry     beta= 0.70
     Davidson diagonalization with overlap

---- Real-time Memory Report at c_bands before calling an iterative solver
          1042 MiB given to the printing process from OS
           617 MiB allocation reported by mallinfo(arena+hblkhd)
       1521966 MiB available memory on the node where the printing process lives
     GPU memory used/free/total (MiB): 2289 / 180352 / 182642
------------------
     ethr =  9.21E-05,  avg # of iterations =  7.8

     total cpu time spent up to now is        4.6 secs

     total energy              =    -936.69315075 Ry
     estimated scf accuracy    <       0.29733271 Ry
[tb_dev] Currently allocated     0.00E+00 Mbytes, locked:    0 /   0
[tb_pin] Currently allocated     0.00E+00 Mbytes, locked:    0 /   0

     iteration #  5     ecut=    60.00 Ry     beta= 0.70
     Davidson diagonalization with overlap

---- Real-time Memory Report at c_bands before calling an iterative solver
          1044 MiB given to the printing process from OS
           630 MiB allocation reported by mallinfo(arena+hblkhd)
       1521163 MiB available memory on the node where the printing process lives
     GPU memory used/free/total (MiB): 2289 / 180352 / 182642
------------------
     ethr =  9.21E-05,  avg # of iterations =  8.1

     total cpu time spent up to now is        5.7 secs

     total energy              =    -936.79425210 Ry
     estimated scf accuracy    <       0.58159872 Ry
[tb_dev] Currently allocated     0.00E+00 Mbytes, locked:    0 /   0
[tb_pin] Currently allocated     0.00E+00 Mbytes, locked:    0 /   0

     iteration #  6     ecut=    60.00 Ry     beta= 0.70
     Davidson diagonalization with overlap

---- Real-time Memory Report at c_bands before calling an iterative solver
          1050 MiB given to the printing process from OS
           631 MiB allocation reported by mallinfo(arena+hblkhd)
       1515390 MiB available memory on the node where the printing process lives
     GPU memory used/free/total (MiB): 2289 / 180352 / 182642
------------------
     ethr =  9.21E-05,  avg # of iterations =  6.2

     total cpu time spent up to now is        6.5 secs

     total energy              =    -936.81945620 Ry
     estimated scf accuracy    <       0.06112852 Ry
[tb_dev] Currently allocated     0.00E+00 Mbytes, locked:    0 /   0
[tb_pin] Currently allocated     0.00E+00 Mbytes, locked:    0 /   0

     iteration #  7     ecut=    60.00 Ry     beta= 0.70
     Davidson diagonalization with overlap

---- Real-time Memory Report at c_bands before calling an iterative solver
          1052 MiB given to the printing process from OS
           633 MiB allocation reported by mallinfo(arena+hblkhd)
       1510527 MiB available memory on the node where the printing process lives
     GPU memory used/free/total (MiB): 2289 / 180352 / 182642
------------------
     ethr =  8.99E-05,  avg # of iterations =  4.4

     total cpu time spent up to now is        7.1 secs

     total energy              =    -936.83468068 Ry
     estimated scf accuracy    <       0.00008739 Ry
[tb_dev] Currently allocated     0.00E+00 Mbytes, locked:    0 /   0
[tb_pin] Currently allocated     0.00E+00 Mbytes, locked:    0 /   0

     iteration #  8     ecut=    60.00 Ry     beta= 0.70
     Davidson diagonalization with overlap

---- Real-time Memory Report at c_bands before calling an iterative solver
          1054 MiB given to the printing process from OS
           635 MiB allocation reported by mallinfo(arena+hblkhd)
       1509227 MiB available memory on the node where the printing process lives
     GPU memory used/free/total (MiB): 2289 / 180352 / 182642
------------------
     ethr =  1.29E-07,  avg # of iterations = 15.4

     total cpu time spent up to now is        8.8 secs

     total energy              =    -936.83641677 Ry
     estimated scf accuracy    <       0.00475251 Ry
[tb_dev] Currently allocated     0.00E+00 Mbytes, locked:    0 /   0
[tb_pin] Currently allocated     0.00E+00 Mbytes, locked:    0 /   0

     iteration #  9     ecut=    60.00 Ry     beta= 0.70
     Davidson diagonalization with overlap

---- Real-time Memory Report at c_bands before calling an iterative solver
          1055 MiB given to the printing process from OS
           637 MiB allocation reported by mallinfo(arena+hblkhd)
       1521437 MiB available memory on the node where the printing process lives
     GPU memory used/free/total (MiB): 2289 / 180352 / 182642
------------------
     ethr =  1.29E-07,  avg # of iterations =  6.6

     total cpu time spent up to now is        9.7 secs

     total energy              =    -936.83591150 Ry
     estimated scf accuracy    <       0.00149132 Ry
[tb_dev] Currently allocated     0.00E+00 Mbytes, locked:    0 /   0
[tb_pin] Currently allocated     0.00E+00 Mbytes, locked:    0 /   0

     iteration # 10     ecut=    60.00 Ry     beta= 0.70
     Davidson diagonalization with overlap

---- Real-time Memory Report at c_bands before calling an iterative solver
          1057 MiB given to the printing process from OS
           638 MiB allocation reported by mallinfo(arena+hblkhd)
       1520859 MiB available memory on the node where the printing process lives
     GPU memory used/free/total (MiB): 2289 / 180352 / 182642
------------------
     ethr =  1.29E-07,  avg # of iterations =  8.9

     total cpu time spent up to now is       10.8 secs

     total energy              =    -936.83630100 Ry
     estimated scf accuracy    <       0.00007582 Ry
[tb_dev] Currently allocated     0.00E+00 Mbytes, locked:    0 /   0
[tb_pin] Currently allocated     0.00E+00 Mbytes, locked:    0 /   0

     iteration # 11     ecut=    60.00 Ry     beta= 0.70
     Davidson diagonalization with overlap

---- Real-time Memory Report at c_bands before calling an iterative solver
          1057 MiB given to the printing process from OS
           638 MiB allocation reported by mallinfo(arena+hblkhd)
       1521944 MiB available memory on the node where the printing process lives
     GPU memory used/free/total (MiB): 2289 / 180352 / 182642
------------------
     ethr =  1.12E-07,  avg # of iterations =  1.8

     total cpu time spent up to now is       11.2 secs

     total energy              =    -936.83629273 Ry
     estimated scf accuracy    <       0.00002899 Ry
[tb_dev] Currently allocated     0.00E+00 Mbytes, locked:    0 /   0
[tb_pin] Currently allocated     0.00E+00 Mbytes, locked:    0 /   0

     iteration # 12     ecut=    60.00 Ry     beta= 0.70
     Davidson diagonalization with overlap

---- Real-time Memory Report at c_bands before calling an iterative solver
          1057 MiB given to the printing process from OS
           638 MiB allocation reported by mallinfo(arena+hblkhd)
       1519361 MiB available memory on the node where the printing process lives
     GPU memory used/free/total (MiB): 2289 / 180352 / 182642
------------------
     ethr =  4.26E-08,  avg # of iterations =  4.9

     total cpu time spent up to now is       11.9 secs

     total energy              =    -936.83630218 Ry
     estimated scf accuracy    <       0.00000016 Ry
[tb_dev] Currently allocated     0.00E+00 Mbytes, locked:    0 /   0
[tb_pin] Currently allocated     0.00E+00 Mbytes, locked:    0 /   0

     iteration # 13     ecut=    60.00 Ry     beta= 0.70
     Davidson diagonalization with overlap

---- Real-time Memory Report at c_bands before calling an iterative solver
          1057 MiB given to the printing process from OS
           638 MiB allocation reported by mallinfo(arena+hblkhd)
       1515578 MiB available memory on the node where the printing process lives
     GPU memory used/free/total (MiB): 2289 / 180352 / 182642
------------------
     ethr =  2.31E-10,  avg # of iterations = 10.9

     total cpu time spent up to now is       13.2 secs

     total energy              =    -936.83630229 Ry
     estimated scf accuracy    <       0.00000357 Ry
[tb_dev] Currently allocated     0.00E+00 Mbytes, locked:    0 /   0
[tb_pin] Currently allocated     0.00E+00 Mbytes, locked:    0 /   0

     iteration # 14     ecut=    60.00 Ry     beta= 0.70
     Davidson diagonalization with overlap

---- Real-time Memory Report at c_bands before calling an iterative solver
          1057 MiB given to the printing process from OS
           638 MiB allocation reported by mallinfo(arena+hblkhd)
       1520459 MiB available memory on the node where the printing process lives
     GPU memory used/free/total (MiB): 2289 / 180352 / 182642
------------------
     ethr =  2.31E-10,  avg # of iterations =  6.3

     total cpu time spent up to now is       14.0 secs

     total energy              =    -936.83630230 Ry
     estimated scf accuracy    <       0.00000074 Ry
[tb_dev] Currently allocated     0.00E+00 Mbytes, locked:    0 /   0
[tb_pin] Currently allocated     0.00E+00 Mbytes, locked:    0 /   0

     iteration # 15     ecut=    60.00 Ry     beta= 0.70
     Davidson diagonalization with overlap

---- Real-time Memory Report at c_bands before calling an iterative solver
          1057 MiB given to the printing process from OS
           638 MiB allocation reported by mallinfo(arena+hblkhd)
       1520063 MiB available memory on the node where the printing process lives
     GPU memory used/free/total (MiB): 2289 / 180352 / 182642
------------------
     ethr =  2.31E-10,  avg # of iterations =  6.0

     total cpu time spent up to now is       14.8 secs

     total energy              =    -936.83630236 Ry
     estimated scf accuracy    <       0.00000005 Ry
[tb_dev] Currently allocated     0.00E+00 Mbytes, locked:    0 /   0
[tb_pin] Currently allocated     0.00E+00 Mbytes, locked:    0 /   0

     iteration # 16     ecut=    60.00 Ry     beta= 0.70
     Davidson diagonalization with overlap

---- Real-time Memory Report at c_bands before calling an iterative solver
          1057 MiB given to the printing process from OS
           638 MiB allocation reported by mallinfo(arena+hblkhd)
       1519987 MiB available memory on the node where the printing process lives
     GPU memory used/free/total (MiB): 2289 / 180352 / 182642
------------------
     ethr =  6.85E-11,  avg # of iterations =  5.8

     total cpu time spent up to now is       15.6 secs

     total energy              =    -936.83630239 Ry
     estimated scf accuracy    <       0.00000001 Ry
[tb_dev] Currently allocated     0.00E+00 Mbytes, locked:    0 /   0
[tb_pin] Currently allocated     0.00E+00 Mbytes, locked:    0 /   0

     iteration # 17     ecut=    60.00 Ry     beta= 0.70
     Davidson diagonalization with overlap

---- Real-time Memory Report at c_bands before calling an iterative solver
          1057 MiB given to the printing process from OS
           638 MiB allocation reported by mallinfo(arena+hblkhd)
       1519739 MiB available memory on the node where the printing process lives
     GPU memory used/free/total (MiB): 2289 / 180352 / 182642
------------------
     ethr =  1.75E-11,  avg # of iterations =  4.7

     total cpu time spent up to now is       16.3 secs

     total energy              =    -936.83630239 Ry
     estimated scf accuracy    <       0.00000003 Ry
[tb_dev] Currently allocated     0.00E+00 Mbytes, locked:    0 /   0
[tb_pin] Currently allocated     0.00E+00 Mbytes, locked:    0 /   0

     iteration # 18     ecut=    60.00 Ry     beta= 0.70
     Davidson diagonalization with overlap

---- Real-time Memory Report at c_bands before calling an iterative solver
          1057 MiB given to the printing process from OS
           638 MiB allocation reported by mallinfo(arena+hblkhd)
       1519891 MiB available memory on the node where the printing process lives
     GPU memory used/free/total (MiB): 2289 / 180352 / 182642
------------------
     ethr =  1.75E-11,  avg # of iterations =  1.9

     total cpu time spent up to now is       16.7 secs

     total energy              =    -936.83630238 Ry
     estimated scf accuracy    <       0.00000001 Ry
[tb_dev] Currently allocated     0.00E+00 Mbytes, locked:    0 /   0
[tb_pin] Currently allocated     0.00E+00 Mbytes, locked:    0 /   0

     iteration # 19     ecut=    60.00 Ry     beta= 0.70
     Davidson diagonalization with overlap

---- Real-time Memory Report at c_bands before calling an iterative solver
          1057 MiB given to the printing process from OS
           638 MiB allocation reported by mallinfo(arena+hblkhd)
       1519901 MiB available memory on the node where the printing process lives
     GPU memory used/free/total (MiB): 2289 / 180352 / 182642
------------------
     ethr =  1.75E-11,  avg # of iterations =  4.4

     total cpu time spent up to now is       17.4 secs

     total energy              =    -936.83630239 Ry
     estimated scf accuracy    <          1.8E-09 Ry
[tb_dev] Currently allocated     0.00E+00 Mbytes, locked:    0 /   0
[tb_pin] Currently allocated     0.00E+00 Mbytes, locked:    0 /   0

     iteration # 20     ecut=    60.00 Ry     beta= 0.70
     Davidson diagonalization with overlap

---- Real-time Memory Report at c_bands before calling an iterative solver
          1057 MiB given to the printing process from OS
           638 MiB allocation reported by mallinfo(arena+hblkhd)
       1520108 MiB available memory on the node where the printing process lives
     GPU memory used/free/total (MiB): 2289 / 180352 / 182642
------------------
     ethr =  2.64E-12,  avg # of iterations =  5.6

     total cpu time spent up to now is       18.1 secs

     total energy              =    -936.83630239 Ry
     estimated scf accuracy    <          2.5E-10 Ry
[tb_dev] Currently allocated     0.00E+00 Mbytes, locked:    0 /   0
[tb_pin] Currently allocated     0.00E+00 Mbytes, locked:    0 /   0

     iteration # 21     ecut=    60.00 Ry     beta= 0.70
     Davidson diagonalization with overlap

---- Real-time Memory Report at c_bands before calling an iterative solver
          1057 MiB given to the printing process from OS
           638 MiB allocation reported by mallinfo(arena+hblkhd)
       1519802 MiB available memory on the node where the printing process lives
     GPU memory used/free/total (MiB): 2289 / 180352 / 182642
------------------
     ethr =  3.64E-13,  avg # of iterations =  4.4

     total cpu time spent up to now is       18.8 secs

     total energy              =    -936.83630239 Ry
     estimated scf accuracy    <          3.8E-10 Ry
[tb_dev] Currently allocated     0.00E+00 Mbytes, locked:    0 /   0
[tb_pin] Currently allocated     0.00E+00 Mbytes, locked:    0 /   0

     iteration # 22     ecut=    60.00 Ry     beta= 0.70
     Davidson diagonalization with overlap

---- Real-time Memory Report at c_bands before calling an iterative solver
          1057 MiB given to the printing process from OS
           638 MiB allocation reported by mallinfo(arena+hblkhd)
       1518140 MiB available memory on the node where the printing process lives
     GPU memory used/free/total (MiB): 2289 / 180352 / 182642
------------------
     ethr =  3.64E-13,  avg # of iterations =  1.9

     total cpu time spent up to now is       19.2 secs

     total energy              =    -936.83630239 Ry
     estimated scf accuracy    <          1.6E-10 Ry
[tb_dev] Currently allocated     0.00E+00 Mbytes, locked:    0 /   0
[tb_pin] Currently allocated     0.00E+00 Mbytes, locked:    0 /   0

     iteration # 23     ecut=    60.00 Ry     beta= 0.70
     Davidson diagonalization with overlap

---- Real-time Memory Report at c_bands before calling an iterative solver
          1057 MiB given to the printing process from OS
           627 MiB allocation reported by mallinfo(arena+hblkhd)
       1515621 MiB available memory on the node where the printing process lives
     GPU memory used/free/total (MiB): 2289 / 180352 / 182642
------------------
     ethr =  2.40E-13,  avg # of iterations =  3.5

     total cpu time spent up to now is       19.8 secs

     total energy              =    -936.83630239 Ry
     estimated scf accuracy    <          4.0E-11 Ry
[tb_dev] Currently allocated     0.00E+00 Mbytes, locked:    0 /   0
[tb_pin] Currently allocated     0.00E+00 Mbytes, locked:    0 /   0

     iteration # 24     ecut=    60.00 Ry     beta= 0.70
     Davidson diagonalization with overlap

---- Real-time Memory Report at c_bands before calling an iterative solver
          1057 MiB given to the printing process from OS
           638 MiB allocation reported by mallinfo(arena+hblkhd)
       1512151 MiB available memory on the node where the printing process lives
     GPU memory used/free/total (MiB): 2289 / 180352 / 182642
------------------
     ethr =  1.00E-13,  avg # of iterations =  4.9

     total cpu time spent up to now is       20.5 secs

     total energy              =    -936.83630239 Ry
     estimated scf accuracy    <          4.4E-12 Ry
[tb_dev] Currently allocated     0.00E+00 Mbytes, locked:    0 /   0
[tb_pin] Currently allocated     0.00E+00 Mbytes, locked:    0 /   0

     iteration # 25     ecut=    60.00 Ry     beta= 0.70
     Davidson diagonalization with overlap

---- Real-time Memory Report at c_bands before calling an iterative solver
          1057 MiB given to the printing process from OS
           638 MiB allocation reported by mallinfo(arena+hblkhd)
       1507948 MiB available memory on the node where the printing process lives
     GPU memory used/free/total (MiB): 2289 / 180352 / 182642
------------------
     ethr =  1.00E-13,  avg # of iterations =  1.0

     total cpu time spent up to now is       20.9 secs

     total energy              =    -936.83630239 Ry
     estimated scf accuracy    <          7.5E-12 Ry
[tb_dev] Currently allocated     0.00E+00 Mbytes, locked:    0 /   0
[tb_pin] Currently allocated     0.00E+00 Mbytes, locked:    0 /   0

     iteration # 26     ecut=    60.00 Ry     beta= 0.70
     Davidson diagonalization with overlap

---- Real-time Memory Report at c_bands before calling an iterative solver
          1057 MiB given to the printing process from OS
           638 MiB allocation reported by mallinfo(arena+hblkhd)
       1507813 MiB available memory on the node where the printing process lives
     GPU memory used/free/total (MiB): 2289 / 180352 / 182642
------------------
     ethr =  1.00E-13,  avg # of iterations =  1.0

     total cpu time spent up to now is       21.3 secs

     total energy              =    -936.83630239 Ry
     estimated scf accuracy    <          7.6E-12 Ry
[tb_dev] Currently allocated     0.00E+00 Mbytes, locked:    0 /   0
[tb_pin] Currently allocated     0.00E+00 Mbytes, locked:    0 /   0

     iteration # 27     ecut=    60.00 Ry     beta= 0.70
     Davidson diagonalization with overlap

---- Real-time Memory Report at c_bands before calling an iterative solver
          1057 MiB given to the printing process from OS
           638 MiB allocation reported by mallinfo(arena+hblkhd)
       1507788 MiB available memory on the node where the printing process lives
     GPU memory used/free/total (MiB): 2289 / 180352 / 182642
------------------
     ethr =  1.00E-13,  avg # of iterations =  1.0

     total cpu time spent up to now is       21.7 secs

     total energy              =    -936.83630239 Ry
     estimated scf accuracy    <          4.0E-12 Ry
[tb_dev] Currently allocated     0.00E+00 Mbytes, locked:    0 /   0
[tb_pin] Currently allocated     0.00E+00 Mbytes, locked:    0 /   0

     iteration # 28     ecut=    60.00 Ry     beta= 0.70
     Davidson diagonalization with overlap

---- Real-time Memory Report at c_bands before calling an iterative solver
          1057 MiB given to the printing process from OS
           638 MiB allocation reported by mallinfo(arena+hblkhd)
       1507760 MiB available memory on the node where the printing process lives
     GPU memory used/free/total (MiB): 2289 / 180352 / 182642
------------------
     ethr =  1.00E-13,  avg # of iterations =  1.0

     total cpu time spent up to now is       22.1 secs

     total energy              =    -936.83630239 Ry
     estimated scf accuracy    <          1.6E-12 Ry
[tb_dev] Currently allocated     0.00E+00 Mbytes, locked:    0 /   0
[tb_pin] Currently allocated     0.00E+00 Mbytes, locked:    0 /   0

     iteration # 29     ecut=    60.00 Ry     beta= 0.70
     Davidson diagonalization with overlap

---- Real-time Memory Report at c_bands before calling an iterative solver
          1057 MiB given to the printing process from OS
           638 MiB allocation reported by mallinfo(arena+hblkhd)
       1512266 MiB available memory on the node where the printing process lives
     GPU memory used/free/total (MiB): 2289 / 180352 / 182642
------------------
     ethr =  1.00E-13,  avg # of iterations =  1.0

     total cpu time spent up to now is       22.5 secs

     End of self-consistent calculation

          k = 0.0000 0.0000 0.0000 (  5739 PWs)   bands (ev):

   -47.2121 -47.1981 -34.9424 -34.9398 -23.5237 -23.5237 -23.4595 -23.3751
   -23.3751 -23.2842  -9.8891  -9.2240  -9.2240  -8.3350  -8.1425  -8.1425
     2.5251   2.5251   2.7231   2.8221   2.8221   3.6505   4.8615   4.8757
     4.8757   5.7238   6.1461   6.1461   6.3175   6.3287   6.3287   6.4669
     6.9565   6.9565

     occupation numbers 
     1.0000   1.0000   1.0000   1.0000   1.0000   1.0000   1.0000   1.0000
     1.0000   1.0000   1.0000   1.0000   1.0000   1.0000   1.0000   1.0000
     1.0000   1.0000   1.0000   1.0000   1.0000   1.0000   1.0000   1.0000
     1.0000   1.0000   1.0000   1.0000   1.0000   1.0000   1.0000   1.0000
     1.0000   1.0000

          k =-0.0000-0.2054 0.0661 (  5717 PWs)   bands (ev):

   -47.2111 -47.1990 -34.9423 -34.9400 -23.5154 -23.5142 -23.4475 -23.3865
   -23.3855 -23.2959  -9.7829  -9.1659  -9.1628  -8.4102  -8.2467  -8.2273
     2.4829   2.5793   2.8977   3.0317   3.0687   3.7125   4.5506   4.6344
     4.7058   5.6944   5.8822   6.1548   6.1610   6.4443   6.5030   6.5641
     6.8204   6.8762

     occupation numbers 
     1.0000   1.0000   1.0000   1.0000   1.0000   1.0000   1.0000   1.0000
     1.0000   1.0000   1.0000   1.0000   1.0000   1.0000   1.0000   1.0000
     1.0000   1.0000   1.0000   1.0000   1.0000   1.0000   1.0000   1.0000
     1.0000   1.0000   1.0000   1.0000   1.0000   1.0000   1.0000   1.0000
     1.0000   1.0000

          k =-0.0000-0.4108 0.1321 (  5717 PWs)   bands (ev):

   -47.2086 -47.2016 -34.9418 -34.9405 -23.4914 -23.4881 -23.4167 -23.4155
   -23.4134 -23.3278  -9.4904  -9.0107  -8.9940  -8.6453  -8.4885  -8.4443
     2.6438   2.8023   3.1642   3.5214   3.5893   3.8420   3.8910   4.2502
     4.4592   5.1549   5.4802   5.7794   6.3921   6.4793   6.5116   6.6250
     6.7477   6.8754

     occupation numbers 
     1.0000   1.0000   1.0000   1.0000   1.0000   1.0000   1.0000   1.0000
     1.0000   1.0000   1.0000   1.0000   1.0000   1.0000   1.0000   1.0000
     1.0000   1.0000   1.0000   1.0000   1.0000   1.0000   1.0000   1.0000
     1.0000   1.0000   1.0000   1.0000   1.0000   1.0000   1.0000   1.0000
     1.0000   1.0000

          k = 0.0000 0.6162-0.1982 (  5714 PWs)   bands (ev):

   -47.2050 -47.2050 -34.9412 -34.9412 -23.4556 -23.4556 -23.4514 -23.4514
   -23.3713 -23.3713  -9.0968  -9.0968  -8.7721  -8.7721  -8.6869  -8.6869
     3.0083   3.0083   3.2764   3.2764   3.7295   3.7295   4.2022   4.2022
     4.6921   4.6921   5.1118   5.1118   6.5460   6.5460   6.6613   6.6613
     6.7454   6.7454

     occupation numbers 
     1.0000   1.0000   1.0000   1.0000   1.0000   1.0000   1.0000   1.0000
     1.0000   1.0000   1.0000   1.0000   1.0000   1.0000   1.0000   1.0000
     1.0000   1.0000   1.0000   1.0000   1.0000   1.0000   1.0000   1.0000
     1.0000   1.0000   1.0000   1.0000   1.0000   1.0000   1.0000   1.0000
     1.0000   1.0000

          k =-0.1779-0.1027 0.1321 (  5718 PWs)   bands (ev):

   -47.2109 -47.1993 -34.9422 -34.9400 -23.5262 -23.5061 -23.4372 -23.4082
   -23.3732 -23.2944  -9.7739  -9.2052  -9.0726  -8.5164  -8.2522  -8.1793
     2.5143   2.5936   2.7719   3.1045   3.1497   3.8681   4.1562   4.8174
     4.8789   5.6936   5.8250   6.0465   6.2083   6.2678   6.4131   6.5629
     6.8413   6.8908

     occupation numbers 
     1.0000   1.0000   1.0000   1.0000   1.0000   1.0000   1.0000   1.0000
     1.0000   1.0000   1.0000   1.0000   1.0000   1.0000   1.0000   1.0000
     1.0000   1.0000   1.0000   1.0000   1.0000   1.0000   1.0000   1.0000
     1.0000   1.0000   1.0000   1.0000   1.0000   1.0000   1.0000   1.0000
     1.0000   1.0000

          k =-0.1779-0.3081 0.1982 (  5731 PWs)   bands (ev):

   -47.2091 -47.2010 -34.9419 -34.9404 -23.5195 -23.4906 -23.4463 -23.4017
   -23.3829 -23.3094  -9.6000  -9.1304  -8.8910  -8.7580  -8.3588  -8.3021
     2.4711   2.7406   3.0983   3.3061   3.4645   3.6891   4.2039   4.4159
     4.8055   5.3465   5.6746   5.9986   6.1072   6.2533   6.3846   6.5986
     6.7182   6.8781

     occupation numbers 
     1.0000   1.0000   1.0000   1.0000   1.0000   1.0000   1.0000   1.0000
     1.0000   1.0000   1.0000   1.0000   1.0000   1.0000   1.0000   1.0000
     1.0000   1.0000   1.0000   1.0000   1.0000   1.0000   1.0000   1.0000
     1.0000   1.0000   1.0000   1.0000   1.0000   1.0000   1.0000   1.0000
     1.0000   1.0000

          k =-0.1779 0.7189-0.1321 (  5737 PWs)   bands (ev):

   -47.2062 -47.2039 -34.9414 -34.9409 -23.4952 -23.4846 -23.4610 -23.4120
   -23.3608 -23.3415  -9.2946  -9.1033  -8.9554  -8.6071  -8.5908  -8.5264
     2.6523   2.8630   3.0938   3.5343   3.7415   3.8308   4.0507   4.3279
     4.5551   4.9600   5.3869   5.7227   6.1887   6.4080   6.4388   6.5484
     6.7321   6.8244

     occupation numbers 
     1.0000   1.0000   1.0000   1.0000   1.0000   1.0000   1.0000   1.0000
     1.0000   1.0000   1.0000   1.0000   1.0000   1.0000   1.0000   1.0000
     1.0000   1.0000   1.0000   1.0000   1.0000   1.0000   1.0000   1.0000
     1.0000   1.0000   1.0000   1.0000   1.0000   1.0000   1.0000   1.0000
     1.0000   1.0000

          k =-0.1779 0.5135-0.0661 (  5718 PWs)   bands (ev):

   -47.2071 -47.2030 -34.9416 -34.9408 -23.5112 -23.4582 -23.4509 -23.4235
   -23.3836 -23.3275  -9.3962  -8.9654  -8.8774  -8.7721  -8.6940  -8.3680
     2.5808   3.0172   3.1554   3.2857   3.4912   3.8959   4.1423   4.3468
     4.6523   5.0584   5.3137   5.9223   6.0921   6.2814   6.4936   6.6646
     6.7222   6.8560

     occupation numbers 
     1.0000   1.0000   1.0000   1.0000   1.0000   1.0000   1.0000   1.0000
     1.0000   1.0000   1.0000   1.0000   1.0000   1.0000   1.0000   1.0000
     1.0000   1.0000   1.0000   1.0000   1.0000   1.0000   1.0000   1.0000
     1.0000   1.0000   1.0000   1.0000   1.0000   1.0000   1.0000   1.0000
     1.0000   1.0000

          k =-0.1779 0.3081 0.0000 (  5720 PWs)   bands (ev):

   -47.2097 -47.2004 -34.9420 -34.9402 -23.5200 -23.4883 -23.4243 -23.4178
   -23.3924 -23.3070  -9.6401  -9.1133  -9.0158  -8.5709  -8.4524  -8.2397
     2.5001   2.7006   3.0129   3.1210   3.5308   3.8748   4.0124   4.2426
     4.9210   5.5378   5.7709   5.9431   6.2254   6.3309   6.4738   6.6216
     6.6876   6.9081

     occupation numbers 
     1.0000   1.0000   1.0000   1.0000   1.0000   1.0000   1.0000   1.0000
     1.0000   1.0000   1.0000   1.0000   1.0000   1.0000   1.0000   1.0000
     1.0000   1.0000   1.0000   1.0000   1.0000   1.0000   1.0000   1.0000
     1.0000   1.0000   1.0000   1.0000   1.0000   1.0000   1.0000   1.0000
     1.0000   1.0000

          k =-0.3558-0.2054 0.2642 (  5733 PWs)   bands (ev):

   -47.2086 -47.2016 -34.9419 -34.9405 -23.5314 -23.4983 -23.4868 -23.3698
   -23.3633 -23.3004  -9.6071  -9.1676  -8.9969  -8.6681  -8.3114  -8.2567
     2.4688   2.6365   2.8307   2.9687   3.5750   3.9106   4.5205   4.7286
     5.1412   5.4322   5.6680   5.8482   5.8841   6.1787   6.1997   6.5336
     6.5464   6.8066

     occupation numbers 
     1.0000   1.0000   1.0000   1.0000   1.0000   1.0000   1.0000   1.0000
     1.0000   1.0000   1.0000   1.0000   1.0000   1.0000   1.0000   1.0000
     1.0000   1.0000   1.0000   1.0000   1.0000   1.0000   1.0000   1.0000
     1.0000   1.0000   1.0000   1.0000   1.0000   1.0000   1.0000   1.0000
     1.0000   1.0000

          k =-0.3558 0.8217-0.0661 (  5744 PWs)   bands (ev):

   -47.2071 -47.2030 -34.9416 -34.9408 -23.5239 -23.5157 -23.4874 -23.3797
   -23.3333 -23.3121  -9.4752  -9.1980  -9.0912  -8.4754  -8.4047  -8.3642
     2.4301   2.5630   2.7839   3.1140   3.8110   4.1490   4.3393   4.7758
     4.9881   5.3610   5.6153   5.7742   5.8880   6.0906   6.2278   6.3801
     6.5785   6.8245

     occupation numbers 
     1.0000   1.0000   1.0000   1.0000   1.0000   1.0000   1.0000   1.0000
     1.0000   1.0000   1.0000   1.0000   1.0000   1.0000   1.0000   1.0000
     1.0000   1.0000   1.0000   1.0000   1.0000   1.0000   1.0000   1.0000
     1.0000   1.0000   1.0000   1.0000   1.0000   1.0000   1.0000   1.0000
     1.0000   1.0000

          k =-0.3558 0.6162 0.0000 (  5732 PWs)   bands (ev):

   -47.2051 -47.2050 -34.9412 -34.9412 -23.5243 -23.4974 -23.4583 -23.4101
   -23.3429 -23.3215  -9.3260  -9.2264  -8.9344  -8.6423  -8.5543  -8.3580
     2.4424   2.6537   3.0719   3.4270   3.7328   3.8016   4.2791   4.6106
     4.8142   5.1786   5.5052   5.7245   6.0852   6.1319   6.2711   6.5399
     6.6208   6.8407

     occupation numbers 
     1.0000   1.0000   1.0000   1.0000   1.0000   1.0000   1.0000   1.0000
     1.0000   1.0000   1.0000   1.0000   1.0000   1.0000   1.0000   1.0000
     1.0000   1.0000   1.0000   1.0000   1.0000   1.0000   1.0000   1.0000
     1.0000   1.0000   1.0000   1.0000   1.0000   1.0000   1.0000   1.0000
     1.0000   1.0000

          k = 0.5337 0.3081-0.3963 (  5740 PWs)   bands (ev):

   -47.2074 -47.2027 -34.9417 -34.9407 -23.5342 -23.5275 -23.4985 -23.3676
   -23.3219 -23.3009  -9.5428  -9.2401  -9.1367  -8.4263  -8.3333  -8.2946
     2.4277   2.4563   2.6299   2.7611   4.1170   4.3480   4.6134   4.9907
     5.0781   5.1713   5.6173   5.6825   5.9120   5.9952   6.2566   6.2922
     6.4923   6.7655

     occupation numbers 
     1.0000   1.0000   1.0000   1.0000   1.0000   1.0000   1.0000   1.0000
     1.0000   1.0000   1.0000   1.0000   1.0000   1.0000   1.0000   1.0000
     1.0000   1.0000   1.0000   1.0000   1.0000   1.0000   1.0000   1.0000
     1.0000   1.0000   1.0000   1.0000   1.0000   1.0000   1.0000   1.0000
     1.0000   1.0000

          k =-0.0000-0.0000 0.1982 (  5719 PWs)   bands (ev):

   -47.2111 -47.1991 -34.9422 -34.9400 -23.5140 -23.5140 -23.4484 -23.3853
   -23.3853 -23.2967  -9.7947  -9.1580  -9.1580  -8.4514  -8.2228  -8.2228
     2.6219   2.6219   2.8677   3.0251   3.0251   3.7504   4.6531   4.6643
     4.6643   5.8175   5.8175   5.8231   6.0554   6.3488   6.3488   6.5094
     6.9672   6.9672

     occupation numbers 
     1.0000   1.0000   1.0000   1.0000   1.0000   1.0000   1.0000   1.0000
     1.0000   1.0000   1.0000   1.0000   1.0000   1.0000   1.0000   1.0000
     1.0000   1.0000   1.0000   1.0000   1.0000   1.0000   1.0000   1.0000
     1.0000   1.0000   1.0000   1.0000   1.0000   1.0000   1.0000   1.0000
     1.0000   1.0000

          k =-0.0000-0.2054 0.2642 (  5708 PWs)   bands (ev):

   -47.2097 -47.2004 -34.9420 -34.9402 -23.5202 -23.4854 -23.4260 -23.4155
   -23.3932 -23.3078  -9.6581  -9.1003  -9.0096  -8.6301  -8.4092  -8.2426
     2.5264   2.7742   3.0687   3.3165   3.4300   3.9019   4.1793   4.2777
     4.6997   5.2428   5.6895   5.9460   6.0054   6.3269   6.5086   6.5234
     6.8381   6.8817

     occupation numbers 
     1.0000   1.0000   1.0000   1.0000   1.0000   1.0000   1.0000   1.0000
     1.0000   1.0000   1.0000   1.0000   1.0000   1.0000   1.0000   1.0000
     1.0000   1.0000   1.0000   1.0000   1.0000   1.0000   1.0000   1.0000
     1.0000   1.0000   1.0000   1.0000   1.0000   1.0000   1.0000   1.0000
     1.0000   1.0000

          k =-0.0000 0.8217-0.0661 (  5737 PWs)   bands (ev):

   -47.2071 -47.2030 -34.9415 -34.9408 -23.5121 -23.4551 -23.4474 -23.4260
   -23.3855 -23.3275  -9.4052  -8.9652  -8.9193  -8.7565  -8.6563  -8.3823
     2.5396   2.9758   3.3672   3.5284   3.6338   3.9166   3.9487   4.3741
     4.5356   4.6578   5.3869   5.8683   6.1782   6.2561   6.5160   6.6120
     6.7249   6.7650

     occupation numbers 
     1.0000   1.0000   1.0000   1.0000   1.0000   1.0000   1.0000   1.0000
     1.0000   1.0000   1.0000   1.0000   1.0000   1.0000   1.0000   1.0000
     1.0000   1.0000   1.0000   1.0000   1.0000   1.0000   1.0000   1.0000
     1.0000   1.0000   1.0000   1.0000   1.0000   1.0000   1.0000   1.0000
     1.0000   1.0000

          k =-0.0000 0.6162 0.0000 (  5734 PWs)   bands (ev):

   -47.2062 -47.2039 -34.9414 -34.9409 -23.4930 -23.4858 -23.4639 -23.4097
   -23.3603 -23.3425  -9.2978  -9.1034  -8.9455  -8.6184  -8.6013  -8.5111
     2.7834   2.9246   2.9942   3.2248   3.6422   3.8916   4.1822   4.4588
     4.7717   4.9425   5.3598   5.5538   6.1752   6.3914   6.4548   6.5865
     6.6265   6.8564

     occupation numbers 
     1.0000   1.0000   1.0000   1.0000   1.0000   1.0000   1.0000   1.0000
     1.0000   1.0000   1.0000   1.0000   1.0000   1.0000   1.0000   1.0000
     1.0000   1.0000   1.0000   1.0000   1.0000   1.0000   1.0000   1.0000
     1.0000   1.0000   1.0000   1.0000   1.0000   1.0000   1.0000   1.0000
     1.0000   1.0000

          k =-0.0000 0.4108 0.0661 (  5721 PWs)   bands (ev):

   -47.2091 -47.2010 -34.9419 -34.9404 -23.5187 -23.4922 -23.4472 -23.4012
   -23.3822 -23.3094  -9.5944  -9.1379  -8.8731  -8.7661  -8.3706  -8.2921
     2.5844   2.7154   2.8337   3.3771   3.4081   3.6460   4.2095   4.5557
     4.8061   5.5519   5.7275   5.9364   6.0890   6.1939   6.3894   6.6141
     6.7037   6.8811

     occupation numbers 
     1.0000   1.0000   1.0000   1.0000   1.0000   1.0000   1.0000   1.0000
     1.0000   1.0000   1.0000   1.0000   1.0000   1.0000   1.0000   1.0000
     1.0000   1.0000   1.0000   1.0000   1.0000   1.0000   1.0000   1.0000
     1.0000   1.0000   1.0000   1.0000   1.0000   1.0000   1.0000   1.0000
     1.0000   1.0000

          k =-0.1779-0.1027 0.3303 (  5715 PWs)   bands (ev):

   -47.2091 -47.2010 -34.9419 -34.9404 -23.5183 -23.4901 -23.4455 -23.4024
   -23.3819 -23.3104  -9.6183  -9.1191  -8.8646  -8.8032  -8.3701  -8.2825
     2.6386   2.7521   3.1011   3.3791   3.4379   3.6942   4.2396   4.5884
     4.6720   5.2777   5.4813   5.9427   5.9886   6.1569   6.2586   6.5784
     6.7631   6.8923

     occupation numbers 
     1.0000   1.0000   1.0000   1.0000   1.0000   1.0000   1.0000   1.0000
     1.0000   1.0000   1.0000   1.0000   1.0000   1.0000   1.0000   1.0000
     1.0000   1.0000   1.0000   1.0000   1.0000   1.0000   1.0000   1.0000
     1.0000   1.0000   1.0000   1.0000   1.0000   1.0000   1.0000   1.0000
     1.0000   1.0000

          k =-0.1779 0.9244 0.0000 (  5739 PWs)   bands (ev):

   -47.2074 -47.2027 -34.9416 -34.9407 -23.5232 -23.4853 -23.4685 -23.3968
   -23.3628 -23.3150  -9.4873  -9.0641  -9.0234  -8.6366  -8.5367  -8.3084
     2.5045   2.8239   3.0470   3.4856   3.5495   3.9292   4.1310   4.5665
     4.8158   5.1154   5.5782   5.7259   5.9481   6.1249   6.2942   6.5118
     6.6489   6.7866

     occupation numbers 
     1.0000   1.0000   1.0000   1.0000   1.0000   1.0000   1.0000   1.0000
     1.0000   1.0000   1.0000   1.0000   1.0000   1.0000   1.0000   1.0000
     1.0000   1.0000   1.0000   1.0000   1.0000   1.0000   1.0000   1.0000
     1.0000   1.0000   1.0000   1.0000   1.0000   1.0000   1.0000   1.0000
     1.0000   1.0000

          k =-0.1779 0.7189 0.0661 (  5746 PWs)   bands (ev):

   -47.2051 -47.2051 -34.9412 -34.9412 -23.5146 -23.5135 -23.4330 -23.4313
   -23.3311 -23.3305  -9.2970  -9.2829  -8.8556  -8.7614  -8.4341  -8.4163
     2.5207   2.6300   3.0773   3.3209   3.7572   4.1272   4.1723   4.4644
     4.8065   5.1680   5.6362   5.7390   5.8580   6.1201   6.3061   6.4678
     6.6584   6.7726

     occupation numbers 
     1.0000   1.0000   1.0000   1.0000   1.0000   1.0000   1.0000   1.0000
     1.0000   1.0000   1.0000   1.0000   1.0000   1.0000   1.0000   1.0000
     1.0000   1.0000   1.0000   1.0000   1.0000   1.0000   1.0000   1.0000
     1.0000   1.0000   1.0000   1.0000   1.0000   1.0000   1.0000   1.0000
     1.0000   1.0000

          k =-0.1779 0.5135 0.1321 (  5726 PWs)   bands (ev):

   -47.2074 -47.2027 -34.9416 -34.9407 -23.5232 -23.4865 -23.4704 -23.3968
   -23.3620 -23.3145  -9.4716  -9.0619  -9.0170  -8.6377  -8.5478  -8.3029
     2.4696   2.8217   2.9149   3.2285   3.5746   3.9630   4.1226   4.6906
     4.8362   5.3581   5.5136   5.8155   6.0505   6.2428   6.3230   6.4467
     6.6457   6.8608

     occupation numbers 
     1.0000   1.0000   1.0000   1.0000   1.0000   1.0000   1.0000   1.0000
     1.0000   1.0000   1.0000   1.0000   1.0000   1.0000   1.0000   1.0000
     1.0000   1.0000   1.0000   1.0000   1.0000   1.0000   1.0000   1.0000
     1.0000   1.0000   1.0000   1.0000   1.0000   1.0000   1.0000   1.0000
     1.0000   1.0000

          k = 0.7116 0.4108-0.3303 (  5740 PWs)   bands (ev):

   -47.2071 -47.2031 -34.9416 -34.9408 -23.5230 -23.5154 -23.4876 -23.3787
   -23.3335 -23.3128  -9.4877  -9.2058  -9.0805  -8.4774  -8.4197  -8.3494
     2.5833   2.6337   2.7107   3.0415   3.9090   4.0748   4.4359   4.7195
     5.1627   5.2649   5.5987   5.6402   5.9026   5.9962   6.1905   6.3120
     6.4587   6.8186

     occupation numbers 
     1.0000   1.0000   1.0000   1.0000   1.0000   1.0000   1.0000   1.0000
     1.0000   1.0000   1.0000   1.0000   1.0000   1.0000   1.0000   1.0000
     1.0000   1.0000   1.0000   1.0000   1.0000   1.0000   1.0000   1.0000
     1.0000   1.0000   1.0000   1.0000   1.0000   1.0000   1.0000   1.0000
     1.0000   1.0000

          k = 0.7116 0.2054-0.2642 (  5743 PWs)   bands (ev):

   -47.2062 -47.2039 -34.9414 -34.9409 -23.5266 -23.5249 -23.4685 -23.3954
   -23.3219 -23.3153  -9.4174  -9.2812  -9.0045  -8.5801  -8.3926  -8.3367
     2.4397   2.4714   2.8435   3.3224   3.6073   4.3285   4.4891   4.6490
     5.1420   5.2666   5.4894   5.6099   5.8728   6.0276   6.2934   6.3619
     6.5081   6.8048

     occupation numbers 
     1.0000   1.0000   1.0000   1.0000   1.0000   1.0000   1.0000   1.0000
     1.0000   1.0000   1.0000   1.0000   1.0000   1.0000   1.0000   1.0000
     1.0000   1.0000   1.0000   1.0000   1.0000   1.0000   1.0000   1.0000
     1.0000   1.0000   1.0000   1.0000   1.0000   1.0000   1.0000   1.0000
     1.0000   1.0000

          k = 0.7116-0.0000-0.1982 (  5734 PWs)   bands (ev):

   -47.2051 -47.2051 -34.9412 -34.9412 -23.5142 -23.5142 -23.4326 -23.4326
   -23.3305 -23.3305  -9.2853  -9.2853  -8.8134  -8.8134  -8.4220  -8.4220
     2.5347   2.5347   3.2051   3.2051   3.8941   3.8941   4.3305   4.3305
     4.9723   4.9723   5.7372   5.7372   6.0431   6.0431   6.3981   6.3981
     6.7485   6.7485

     occupation numbers 
     1.0000   1.0000   1.0000   1.0000   1.0000   1.0000   1.0000   1.0000
     1.0000   1.0000   1.0000   1.0000   1.0000   1.0000   1.0000   1.0000
     1.0000   1.0000   1.0000   1.0000   1.0000   1.0000   1.0000   1.0000
     1.0000   1.0000   1.0000   1.0000   1.0000   1.0000   1.0000   1.0000
     1.0000   1.0000

          k = 0.5337 0.3081-0.1982 (  5729 PWs)   bands (ev):

   -47.2071 -47.2030 -34.9416 -34.9408 -23.5232 -23.5159 -23.4883 -23.3789
   -23.3332 -23.3125  -9.4765  -9.2003  -9.0856  -8.4805  -8.4116  -8.3541
     2.5136   2.6323   2.7120   2.9122   3.8718   4.1662   4.4553   4.7185
     5.1037   5.2236   5.6738   5.8553   5.9851   6.0114   6.2384   6.2763
     6.4619   6.8393

     occupation numbers 
     1.0000   1.0000   1.0000   1.0000   1.0000   1.0000   1.0000   1.0000
     1.0000   1.0000   1.0000   1.0000   1.0000   1.0000   1.0000   1.0000
     1.0000   1.0000   1.0000   1.0000   1.0000   1.0000   1.0000   1.0000
     1.0000   1.0000   1.0000   1.0000   1.0000   1.0000   1.0000   1.0000
     1.0000   1.0000

          k =-0.0000-0.0000 0.3963 (  5713 PWs)   bands (ev):

   -47.2086 -47.2016 -34.9418 -34.9405 -23.4875 -23.4875 -23.4178 -23.4132
   -23.4132 -23.3302  -9.5311  -8.9736  -8.9736  -8.7584  -8.4354  -8.4354
     2.9425   2.9425   3.2344   3.5535   3.5535   4.0870   4.1187   4.1187
     4.1953   5.1246   5.1246   5.4275   6.0668   6.4471   6.4471   6.4912
     6.8738   6.8738

     occupation numbers 
     1.0000   1.0000   1.0000   1.0000   1.0000   1.0000   1.0000   1.0000
     1.0000   1.0000   1.0000   1.0000   1.0000   1.0000   1.0000   1.0000
     1.0000   1.0000   1.0000   1.0000   1.0000   1.0000   1.0000   1.0000
     1.0000   1.0000   1.0000   1.0000   1.0000   1.0000   1.0000   1.0000
     1.0000   1.0000

          k =-0.0000 1.0271 0.0661 (  5721 PWs)   bands (ev):

   -47.2071 -47.2031 -34.9415 -34.9408 -23.5104 -23.4547 -23.4470 -23.4240
   -23.3865 -23.3288  -9.4298  -8.9803  -8.8971  -8.7667  -8.6646  -8.3692
     2.7241   3.1299   3.3547   3.5867   3.5952   3.9016   4.0770   4.3837
     4.5315   4.5423   5.1904   5.6576   6.0466   6.0861   6.5025   6.6307
     6.6991   6.7504

     occupation numbers 
     1.0000   1.0000   1.0000   1.0000   1.0000   1.0000   1.0000   1.0000
     1.0000   1.0000   1.0000   1.0000   1.0000   1.0000   1.0000   1.0000
     1.0000   1.0000   1.0000   1.0000   1.0000   1.0000   1.0000   1.0000
     1.0000   1.0000   1.0000   1.0000   1.0000   1.0000   1.0000   1.0000
     1.0000   1.0000

          k =-0.0000 0.8217 0.1321 (  5732 PWs)   bands (ev):

   -47.2051 -47.2051 -34.9412 -34.9412 -23.5243 -23.4949 -23.4598 -23.4073
   -23.3447 -23.3218  -9.3364  -9.2510  -8.9186  -8.6416  -8.5466  -8.3646
     2.4828   2.9276   2.9666   3.4324   3.7457   3.7487   4.4636   4.5470
     4.9235   5.0742   5.5241   5.5336   5.8180   6.1163   6.3252   6.3913
     6.5414   6.8246

     occupation numbers 
     1.0000   1.0000   1.0000   1.0000   1.0000   1.0000   1.0000   1.0000
     1.0000   1.0000   1.0000   1.0000   1.0000   1.0000   1.0000   1.0000
     1.0000   1.0000   1.0000   1.0000   1.0000   1.0000   1.0000   1.0000
     1.0000   1.0000   1.0000   1.0000   1.0000   1.0000   1.0000   1.0000
     1.0000   1.0000

          k = 0.8895 0.5135-0.2642 (  5719 PWs)   bands (ev):

   -47.2062 -47.2039 -34.9414 -34.9409 -23.4923 -23.4834 -23.4610 -23.4091
   -23.3620 -23.3438  -9.3357  -9.1313  -8.9248  -8.6156  -8.6036  -8.5008
     2.9916   3.0591   3.0964   3.6299   3.7084   3.8562   4.0087   4.3192
     4.6678   4.8127   5.1344   5.3216   6.1167   6.1994   6.3821   6.5494
     6.5904   6.8075

     occupation numbers 
     1.0000   1.0000   1.0000   1.0000   1.0000   1.0000   1.0000   1.0000
     1.0000   1.0000   1.0000   1.0000   1.0000   1.0000   1.0000   1.0000
     1.0000   1.0000   1.0000   1.0000   1.0000   1.0000   1.0000   1.0000
     1.0000   1.0000   1.0000   1.0000   1.0000   1.0000   1.0000   1.0000
     1.0000   1.0000

          k = 0.8895 0.3081-0.1982 (  5740 PWs)   bands (ev):

   -47.2051 -47.2051 -34.9412 -34.9412 -23.5133 -23.5133 -23.4315 -23.4315
   -23.3313 -23.3313  -9.3051  -9.3051  -8.8035  -8.8035  -8.4237  -8.4237
     2.6644   2.6644   3.2073   3.2073   3.9959   3.9959   4.2628   4.2628
     5.0243   5.0243   5.5367   5.5367   5.9297   5.9297   6.3237   6.3237
     6.7008   6.7008

     occupation numbers 
     1.0000   1.0000   1.0000   1.0000   1.0000   1.0000   1.0000   1.0000
     1.0000   1.0000   1.0000   1.0000   1.0000   1.0000   1.0000   1.0000
     1.0000   1.0000   1.0000   1.0000   1.0000   1.0000   1.0000   1.0000
     1.0000   1.0000   1.0000   1.0000   1.0000   1.0000   1.0000   1.0000
     1.0000   1.0000

          k = 0.0000 0.0000-0.5945 (  5704 PWs)   bands (ev):

   -47.2051 -47.2051 -34.9411 -34.9411 -23.4507 -23.4507 -23.4507 -23.4507
   -23.3747 -23.3747  -9.1554  -9.1554  -8.7115  -8.7115  -8.7115  -8.7115
     3.4676   3.4676   3.4676   3.4676   3.6967   3.6967   4.3114   4.3114
     4.3114   4.3114   4.6891   4.6891   6.3292   6.3292   6.6625   6.6625
     6.6625   6.6625

     occupation numbers 
     1.0000   1.0000   1.0000   1.0000   1.0000   1.0000   1.0000   1.0000
     1.0000   1.0000   1.0000   1.0000   1.0000   1.0000   1.0000   1.0000
     1.0000   1.0000   1.0000   1.0000   1.0000   1.0000   1.0000   1.0000
     1.0000   1.0000   1.0000   1.0000   1.0000   1.0000   1.0000   1.0000
     1.0000   1.0000

     highest occupied level (ev):     6.9672

!    total energy              =    -936.83630239 Ry
     estimated scf accuracy    <          7.6E-13 Ry

     The total energy is the sum of the following terms:
     one-electron contribution =    -143.61876836 Ry
     hartree contribution      =     105.75278202 Ry
     xc contribution           =    -108.12019006 Ry
     ewald contribution        =    -327.39583993 Ry
     one-center paw contrib.   =    -463.45428605 Ry
      -> PAW hartree energy AE =     292.27437999 Ry
      -> PAW hartree energy PS =    -290.75984576 Ry
      -> PAW xc energy AE      =    -560.51918739 Ry
      -> PAW xc energy PS      =      95.55036711 Ry
      -> total E_H with PAW    =     107.26731624 Ry
      -> total E_XC with PAW   =    -573.08901033 Ry

     convergence has been achieved in  29 iterations

     Forces acting on atoms (cartesian axes, Ry/au):

     atom    1 type  1   force =     0.00000000    0.00000000    0.00025238
     atom    2 type  1   force =    -0.00000000   -0.00000000    0.00025238
     atom    3 type  2   force =     0.01185709   -0.00241189   -0.00372958
     atom    4 type  2   force =    -0.00383978    0.01147448   -0.00372958
     atom    5 type  2   force =    -0.00801730   -0.00906259   -0.00372958
     atom    6 type  2   force =     0.00383978    0.01147448   -0.00372958
     atom    7 type  2   force =    -0.01185709   -0.00241189   -0.00372958
     atom    8 type  2   force =     0.00801730   -0.00906259   -0.00372958
     atom    9 type  3   force =    -0.00000000   -0.00000000    0.01093636
     atom   10 type  3   force =     0.00000000    0.00000000    0.01093636
     The non-local contrib.  to forces
     atom    1 type  1   force =     0.00000000    0.00000000    0.01046442
     atom    2 type  1   force =    -0.00000000    0.00000000    0.01046442
     atom    3 type  2   force =     0.33192988   -0.18330057   -0.04505612
     atom    4 type  2   force =    -0.00722199    0.37910999   -0.04505612
     atom    5 type  2   force =    -0.32470789   -0.19580943   -0.04505612
     atom    6 type  2   force =     0.00722199    0.37910999   -0.04505612
     atom    7 type  2   force =    -0.33192988   -0.18330057   -0.04505612
     atom    8 type  2   force =     0.32470789   -0.19580943   -0.04505612
     atom    9 type  3   force =     0.00000000   -0.00000000   -0.00909834
     atom   10 type  3   force =     0.00000000   -0.00000000   -0.00909834
     The ionic contribution  to forces
     atom    1 type  1   force =    -0.00000000   -0.00000000   -1.07294032
     atom    2 type  1   force =     0.00000000   -0.00000000   -1.07294031
     atom    3 type  2   force =    -3.60347212    2.67612080    0.38768308
     atom    4 type  2   force =    -0.51585254   -4.45875880    0.38768308
     atom    5 type  2   force =     4.11932466    1.78263800    0.38768308
     atom    6 type  2   force =     0.51585254   -4.45875880    0.38768308
     atom    7 type  2   force =     3.60347212    2.67612080    0.38768308
     atom    8 type  2   force =    -4.11932466    1.78263800    0.38768308
     atom    9 type  3   force =    -0.00000000   -0.00000000   -0.09010892
     atom   10 type  3   force =     0.00000000    0.00000000   -0.09010891
     The local contribution  to forces
     atom    1 type  1   force =     0.00000000   -0.00000000    1.06272833
     atom    2 type  1   force =    -0.00000000    0.00000000    1.06272833
     atom    3 type  2   force =     3.28487400   -2.49683342   -0.34627772
     atom    4 type  2   force =     0.51988417    4.09320104   -0.34627772
     atom    5 type  2   force =    -3.80475817   -1.59636762   -0.34627772
     atom    6 type  2   force =    -0.51988418    4.09320104   -0.34627772
     atom    7 type  2   force =    -3.28487400   -2.49683342   -0.34627772
     atom    8 type  2   force =     3.80475817   -1.59636762   -0.34627772
     atom    9 type  3   force =     0.00000000    0.00000000    0.11531377
     atom   10 type  3   force =    -0.00000000    0.00000000    0.11531378
     The core correction contribution to forces
     atom    1 type  1   force =     0.00000000    0.00000000    0.00000000
     atom    2 type  1   force =     0.00000000    0.00000000    0.00000000
     atom    3 type  2   force =    -0.00147431    0.00160114   -0.00007878
     atom    4 type  2   force =    -0.00064947   -0.00207736   -0.00007878
     atom    5 type  2   force =     0.00212379    0.00047622   -0.00007878
     atom    6 type  2   force =     0.00064947   -0.00207736   -0.00007878
     atom    7 type  2   force =     0.00147431    0.00160114   -0.00007878
     atom    8 type  2   force =    -0.00212379    0.00047622   -0.00007878
     atom    9 type  3   force =     0.00000000    0.00000000   -0.00517006
     atom   10 type  3   force =     0.00000000   -0.00000000   -0.00517006
     The Hubbard contrib.    to forces
     atom    1 type  1   force =     0.00000000    0.00000000    0.00000000
     atom    2 type  1   force =     0.00000000    0.00000000    0.00000000
     atom    3 type  2   force =     0.00000000    0.00000000    0.00000000
     atom    4 type  2   force =     0.00000000    0.00000000    0.00000000
     atom    5 type  2   force =     0.00000000    0.00000000    0.00000000
     atom    6 type  2   force =     0.00000000    0.00000000    0.00000000
     atom    7 type  2   force =     0.00000000    0.00000000    0.00000000
     atom    8 type  2   force =     0.00000000    0.00000000    0.00000000
     atom    9 type  3   force =     0.00000000    0.00000000    0.00000000
     atom   10 type  3   force =     0.00000000    0.00000000    0.00000000
     The SCF correction term to forces
     atom    1 type  1   force =     0.00000000   -0.00000000   -0.00000001
     atom    2 type  1   force =    -0.00000000   -0.00000000   -0.00000001
     atom    3 type  2   force =    -0.00000036    0.00000015    0.00000000
     atom    4 type  2   force =     0.00000005   -0.00000039    0.00000000
     atom    5 type  2   force =     0.00000031    0.00000023    0.00000000
     atom    6 type  2   force =    -0.00000005   -0.00000039    0.00000000
     atom    7 type  2   force =     0.00000036    0.00000015    0.00000000
     atom    8 type  2   force =    -0.00000031    0.00000023    0.00000000
     atom    9 type  3   force =     0.00000000    0.00000000   -0.00000006
     atom   10 type  3   force =    -0.00000000    0.00000000   -0.00000006

     Total force =     0.034659     Total SCF correction =     0.000001


     Computing stress (Cartesian axis) and pressure

          total   stress  (Ry/bohr**3)                   (kbar)     P=      -56.07
  -0.00039318  -0.00000000  -0.00000000          -57.84       -0.00       -0.00
  -0.00000000  -0.00039318  -0.00000000           -0.00      -57.84       -0.00
   0.00000000  -0.00000000  -0.00035713            0.00       -0.00      -52.54

     kinetic stress (kbar)  25915.67      0.00      0.00
                                0.00  25915.67      0.00
                               -0.00      0.00  25877.27

     local   stress (kbar) -12867.30     -0.00     -0.00
                               -0.00 -12867.30      0.00
                               -0.00      0.00 -11008.32

     nonloc. stress (kbar)   6766.66      0.00      0.00
                                0.00   6766.66      0.00
                                0.00      0.00   6808.37

     hartree stress (kbar)   7250.69     -0.00      0.00
                               -0.00   7250.69     -0.00
                                0.00     -0.00   6809.37

     exc-cor stress (kbar)   1059.08      0.00      0.00
                                0.00   1059.08     -0.00
                                0.00     -0.00   1056.09

     corecor stress (kbar)  -6661.61     -0.00     -0.00
                               -0.00  -6661.61      0.00
                               -0.00      0.00  -6662.25

     ewald   stress (kbar) -21521.03      0.00      0.00
                                0.00 -21521.03     -0.00
                                0.00     -0.00 -22933.06

     hubbard stress (kbar)      0.00      0.00      0.00
                                0.00      0.00      0.00
                                0.00      0.00      0.00

     DFT-D   stress (kbar)      0.00      0.00      0.00
                                0.00      0.00      0.00
                                0.00      0.00      0.00

     XDM     stress (kbar)      0.00      0.00      0.00
                                0.00      0.00      0.00
                                0.00      0.00      0.00

     dft-nl  stress (kbar)      0.00      0.00      0.00
                                0.00      0.00      0.00
                                0.00      0.00      0.00

     TS-vdW  stress (kbar)      0.00      0.00      0.00
                                0.00      0.00      0.00
                                0.00      0.00      0.00

     MDB     stress (kbar)      0.00      0.00      0.00
                                0.00      0.00      0.00
                                0.00      0.00      0.00

     3D-RISM stress (kbar)      0.00      0.00      0.00
                                0.00      0.00      0.00
                                0.00      0.00      0.00

     Message from routine punch:
     Nothing written, as per user request (disk_io='none')
 
     init_run     :      0.54s CPU      0.76s WALL (       1 calls)
     electrons    :     20.66s CPU     21.29s WALL (       1 calls)
     forces       :      0.08s CPU      0.08s WALL (       1 calls)
     stress       :      0.16s CPU      0.16s WALL (       1 calls)

     Called by init_run:
     wfcinit      :      0.18s CPU      0.28s WALL (       1 calls)
     wfcinit:atom :      0.02s CPU      0.03s WALL (      32 calls)
     wfcinit:wfcr :      0.13s CPU      0.19s WALL (      32 calls)
     potinit      :      0.09s CPU      0.11s WALL (       1 calls)
     hinit0       :      0.20s CPU      0.23s WALL (       1 calls)

     Called by electrons:
     c_bands      :     15.86s CPU     16.32s WALL (      29 calls)
     sum_band     :      2.00s CPU      2.03s WALL (      29 calls)
     v_of_rho     :      0.11s CPU      0.15s WALL (      30 calls)
     v_h          :      0.04s CPU      0.07s WALL (      30 calls)
     v_xc         :      0.07s CPU      0.08s WALL (      32 calls)
     newd         :      0.28s CPU      0.31s WALL (      30 calls)
     PAW_pot      :      2.20s CPU      2.26s WALL (      30 calls)
     mix_rho      :      0.19s CPU      0.20s WALL (      29 calls)

     Called by c_bands:
     init_us_2    :      0.63s CPU      0.64s WALL (    1952 calls)
     cegterg      :     14.53s CPU     14.95s WALL (     928 calls)

     Called by sum_band:
     sum_band:wei :      0.00s CPU      0.00s WALL (      29 calls)
     sum_band:loo :      1.53s CPU      1.56s WALL (      29 calls)
     sum_band:buf :      0.26s CPU      0.27s WALL (     928 calls)
     sum_band:ini :      0.30s CPU      0.30s WALL (     928 calls)
     sum_band:cal :      0.02s CPU      0.02s WALL (     928 calls)
     sum_band:bec :      0.35s CPU      0.35s WALL (     928 calls)
     addusdens    :      0.31s CPU      0.31s WALL (      29 calls)
                                        0.31s GPU  (      29 calls)
     addusd:skk   :      0.01s CPU      0.01s WALL (      87 calls)
                                        0.01s GPU  (      87 calls)

     Called by *egterg:
     cdiaghg      :      6.36s CPU      6.51s WALL (    5577 calls)
                                        6.46s GPU  (    5577 calls)
     cegterg:over :      0.44s CPU      0.45s WALL (    4649 calls)
     cegterg:upda :      1.36s CPU      1.37s WALL (    4649 calls)
     cegterg:last :      0.19s CPU      0.19s WALL (    3011 calls)
     h_psi        :      4.05s CPU      4.42s WALL (    5609 calls)
     s_psi        :      1.42s CPU      1.45s WALL (    5609 calls)
     g_psi        :      0.09s CPU      0.09s WALL (    4649 calls)

     Called by h_psi:
     h_psi:calbec :      0.10s CPU      0.13s WALL (    5609 calls)
     vloc_psi     :      2.59s CPU      2.98s WALL (    5609 calls)
                                        2.92s GPU  (    5609 calls)
     add_vuspsi   :      1.20s CPU      1.22s WALL (    5609 calls)

     General routines
     calbec       :      0.11s CPU      0.15s WALL (    7081 calls)
     fft          :      0.04s CPU      0.07s WALL (     413 calls)
                                        0.03s GPU  (     383 calls)
     ffts         :      0.02s CPU      0.02s WALL (      59 calls)
                                        0.00s GPU  (      29 calls)
     fftw         :      0.19s CPU      1.84s WALL (   24456 calls)
                                        1.61s GPU  (   24456 calls)
     interpolate  :      0.07s CPU      0.11s WALL (      30 calls)
 
     Parallel routines

     PAW routines
     PAW_pot      :      2.20s CPU      2.26s WALL (      30 calls)
     PAW_symme    :      0.00s CPU      0.00s WALL (      59 calls)
 
     PWSCF        :     21.85s CPU     22.73s WALL

 
   This run was terminated on:  17: 6:26  29Nov2025            

=------------------------------------------------------------------------------=
   JOB DONE.
=------------------------------------------------------------------------------=
