
     Program PWSCF v.7.5 starts on 29Nov2025 at 17: 5:37 

     This program is part of the open-source Quantum ESPRESSO suite
     for quantum simulation of materials; please cite
         "P. Giannozzi et al., J. Phys.:Condens. Matter 21 395502 (2009);
         "P. Giannozzi et al., J. Phys.:Condens. Matter 29 465901 (2017);
         "P. Giannozzi et al., J. Chem. Phys. 152 154105 (2020);
          URL http://www.quantum-espresso.org", 
     in publications or presentations arising from this work. More details at
     http://www.quantum-espresso.org/quote

     Parallel version (MPI & OpenMP), running on       1 processor cores
     Number of MPI processes:                 1
     Threads/MPI process:                     1

     MPI processes distributed on     1 nodes
     1888897 MiB available memory on the printing compute node when the environment starts
 
     Reading input from espresso.pwi
Warning: card &CELL ignored
Warning: card &FCP ignored
Warning: card &RISM ignored

     Current dimensions of program PWSCF are:
     Max number of different atomic species (ntypx) = 10
     Max number of k-points (npk) =  40000
     Max angular momentum in pseudopotentials (lmaxx) =  4
     file O.pbesol-n-kjpaw_psl.0.1.UPF: wavefunction(s)  2P renormalized
     file Nb.pbesol-spn-kjpaw_psl.0.3.0.UPF: wavefunction(s)  4S 4P renormalized
     Message from routine setup:
     using ibrav=0 with symmetry is DISCOURAGED, use correct ibrav instead
 
     Subspace diagonalization in iterative solution of the eigenvalue problem:
     a serial algorithm will be used

 
     G-vector sticks info
     --------------------
     sticks:   dense  smooth     PW     G-vecs:    dense   smooth      PW
     Sum        2849    1703    489                96643    44923    7097
 
     Using Slab Decomposition
 


     bravais-lattice index     =            0
     lattice parameter (alat)  =      10.4217  a.u.
     unit-cell volume          =     715.6124 (a.u.)^3
     number of atoms/cell      =           10
     number of atomic types    =            3
     number of electrons       =        68.00
     number of Kohn-Sham states=           34
     kinetic-energy cutoff     =      60.0000  Ry
     charge density cutoff     =     400.0000  Ry
     scf convergence threshold =      1.0E-12
     mixing beta               =       0.7000
     number of iterations used =            8  plain     mixing
     Exchange-correlation= SLA  PW   PSX  PSC
                           (   1   4  10   8   0   0   0)

     GPU acceleration is ACTIVE.  1 visible GPUs per MPI rank


     GPU used by master process:

        Device Number: 0
        Device name: NVIDIA B200
        Compute capability : 100
        Ratio of single to double precision performance  : 16
        Memory Clock Rate (KHz): 3996000
        Memory Bus Width (bits): 7680
        Peak Memory Bandwidth (GB/s): ******

     celldm(1)=  10.421658  celldm(2)=   0.000000  celldm(3)=   0.000000
     celldm(4)=   0.000000  celldm(5)=   0.000000  celldm(6)=   0.000000

     crystal axes: (cart. coord. in units of alat)
               a(1) = (   0.465149   0.268554   0.843513 )  
               a(2) = (  -0.465149   0.268554   0.843513 )  
               a(3) = (   0.000000  -0.537108   0.843513 )  

     reciprocal axes: (cart. coord. in units 2 pi/alat)
               b(1) = (  1.074924  0.620607  0.395173 )  
               b(2) = ( -1.074924  0.620607  0.395173 )  
               b(3) = ( -0.000000 -1.241215  0.395173 )  


     PseudoPot. # 1 for Li read from file:
     /home/qhossain/SSSP_1.3.0_PBEsol_efficiency/li_pbesol_v1.4.uspp.F.UPF
     MD5 check sum: aa28d9aeea6a965f2dc95ee9517b3536
     Pseudo is Ultrasoft, Zval =  3.0
     Generated by new atomic code, or converted to UPF format
     Using radial grid of  751 points,  5 beta functions with: 
                l(1) =   0
                l(2) =   0
                l(3) =   0
                l(4) =   1
                l(5) =   1
     Q(r) pseudized with 10 coefficients,  rinner =    1.150   1.150   1.150


     PseudoPot. # 2 for O  read from file:
     /home/qhossain/SSSP_1.3.0_PBEsol_efficiency/O.pbesol-n-kjpaw_psl.0.1.UPF
     MD5 check sum: 81d73d1479e654e5638b0319f0d6c2c7
     Pseudo is Projector augmented-wave + core cor, Zval =  6.0
     Generated using "atomic" code by A. Dal Corso  v.6.0 svn rev. 13079
     Shape of augmentation charge: BESSEL
     Using radial grid of 1095 points,  4 beta functions with: 
                l(1) =   0
                l(2) =   0
                l(3) =   1
                l(4) =   1
     Q(r) pseudized with 0 coefficients 


     PseudoPot. # 3 for Nb read from file:
     /home/qhossain/SSSP_1.3.0_PBEsol_efficiency/Nb.pbesol-spn-kjpaw_psl.0.3.0.UPF
     MD5 check sum: 3501bca1474143575298708b2d32ca28
     Pseudo is Projector augmented-wave + core cor, Zval = 13.0
     Generated using "atomic" code by A. Dal Corso  v.6.0 svn rev. 13079
     Shape of augmentation charge: PSQ
     Using radial grid of 1227 points,  6 beta functions with: 
                l(1) =   0
                l(2) =   0
                l(3) =   1
                l(4) =   1
                l(5) =   2
                l(6) =   2
     Q(r) pseudized with 0 coefficients 


     atomic species   valence    mass     pseudopotential
     Li                3.00     6.94000     Li( 1.00)
     O                 6.00    15.99900     O ( 1.00)
     Nb               13.00    92.90637     Nb( 1.00)

      6 Sym. Ops. (no inversion) found ( 3 have fractional translation)


                                    s                        frac. trans.

      isym =  1     identity                                     

 cryst.   s( 1) = (     1          0          0      )
                  (     0          1          0      )
                  (     0          0          1      )

 cart.    s( 1) = (  1.0000000  0.0000000 -0.0000000 )
                  (  0.0000000  1.0000000  0.0000000 )
                  (  0.0000000  0.0000000  1.0000000 )


      isym =  2     120 deg rotation - cryst. axis [0,0,1]       

 cryst.   s( 2) = (     0          1          0      )
                  (     0          0          1      )
                  (     1          0          0      )

 cart.    s( 2) = ( -0.5000000 -0.8660254 -0.0000000 )
                  (  0.8660254 -0.5000000 -0.0000000 )
                  (  0.0000000 -0.0000000  1.0000000 )


      isym =  3     120 deg rotation - cryst. axis [0,0,-1]      

 cryst.   s( 3) = (     0          0          1      )
                  (     1          0          0      )
                  (     0          1          0      )

 cart.    s( 3) = ( -0.5000000  0.8660254  0.0000000 )
                  ( -0.8660254 -0.5000000 -0.0000000 )
                  ( -0.0000000  0.0000000  1.0000000 )


      isym =  4     inv. 180 deg rotation - cart. axis [1,0,0]   

 cryst.   s( 4) = (     0          1          0      )    f =(  0.5000000 )
                  (     1          0          0      )       (  0.5000000 )
                  (     0          0          1      )       (  0.5000000 )

 cart.    s( 4) = ( -1.0000000  0.0000000 -0.0000000 )    f =( -0.0000000 )
                  ( -0.0000000  1.0000000  0.0000000 )       ( -0.0000000 )
                  ( -0.0000000  0.0000000  1.0000000 )       (  1.2652701 )


      isym =  5     inv. 180 deg rotation - cryst. axis [0,1,0]  

 cryst.   s( 5) = (     1          0          0      )    f =(  0.5000000 )
                  (     0          0          1      )       (  0.5000000 )
                  (     0          1          0      )       (  0.5000000 )

 cart.    s( 5) = (  0.5000000  0.8660254  0.0000000 )    f =(  0.0000000 )
                  (  0.8660254 -0.5000000 -0.0000000 )       ( -0.0000000 )
                  (  0.0000000  0.0000000  1.0000000 )       (  1.2652701 )


      isym =  6     inv. 180 deg rotation - cryst. axis [1,1,0]  

 cryst.   s( 6) = (     0          0          1      )    f =(  0.5000000 )
                  (     0          1          0      )       (  0.5000000 )
                  (     1          0          0      )       (  0.5000000 )

 cart.    s( 6) = (  0.5000000 -0.8660254 -0.0000000 )    f =( -0.0000000 )
                  ( -0.8660254 -0.5000000 -0.0000000 )       ( -0.0000000 )
                  ( -0.0000000 -0.0000000  1.0000000 )       (  1.2652701 )


   Cartesian axes

     site n.     atom                  positions (alat units)
         1        Li     tau(   1) = (   0.0000000  -0.0000000   1.9824984  )
         2        Li     tau(   2) = (   0.0000000  -0.0000000   0.7172283  )
         3        O      tau(   3) = (  -0.2981519  -0.0380259   1.4325489  )
         4        O      tau(   4) = (   0.1820073  -0.2391942   1.4325489  )
         5        O      tau(   5) = (   0.1161445   0.2772200   1.4325489  )
         6        O      tau(   6) = (   0.2831420   0.0293599   1.0107922  )
         7        O      tau(   7) = (  -0.1669974   0.2305282   1.0107922  )
         8        O      tau(   8) = (  -0.1161445  -0.2598881   1.0107922  )
         9        Nb     tau(   9) = (  -0.0000000  -0.0000000   1.2679932  )
        10        Nb     tau(  10) = (   0.0000000  -0.0000000   0.0027232  )

   Crystallographic axes

     site n.     atom                  positions (cryst. coord.)
         1        Li     tau(   1) = (  0.7834289  0.7834289  0.7834289  )
         2        Li     tau(   2) = (  0.2834289  0.2834289  0.2834289  )
         3        O      tau(   3) = (  0.2220144  0.8629954  0.6133023  )
         4        O      tau(   4) = (  0.6133023  0.2220144  0.8629954  )
         5        O      tau(   5) = (  0.8629954  0.6133023  0.2220144  )
         6        O      tau(   6) = (  0.7220144  0.1133023  0.3629954  )
         7        O      tau(   7) = (  0.3629954  0.7220144  0.1133023  )
         8        O      tau(   8) = (  0.1133023  0.3629954  0.7220144  )
         9        Nb     tau(   9) = (  0.5010761  0.5010761  0.5010761  )
        10        Nb     tau(  10) = (  0.0010761  0.0010761  0.0010761  )

     number of k points=    32
                       cart. coord. in units 2pi/alat
        k(    1) = (   0.0000000   0.0000000   0.0000000), wk =   0.0092593
        k(    2) = (  -0.0000000  -0.2068691   0.0658621), wk =   0.0555556
        k(    3) = (  -0.0000000  -0.4137383   0.1317242), wk =   0.0555556
        k(    4) = (   0.0000000   0.6206074  -0.1975863), wk =   0.0277778
        k(    5) = (  -0.1791539  -0.1034346   0.1317242), wk =   0.0555556
        k(    6) = (  -0.1791539  -0.3103037   0.1975863), wk =   0.1111111
        k(    7) = (  -0.1791539   0.7240420  -0.1317242), wk =   0.1111111
        k(    8) = (  -0.1791539   0.5171729  -0.0658621), wk =   0.1111111
        k(    9) = (  -0.1791539   0.3103037   0.0000000), wk =   0.0555556
        k(   10) = (  -0.3583079  -0.2068691   0.2634484), wk =   0.0555556
        k(   11) = (  -0.3583079   0.8274766  -0.0658621), wk =   0.1111111
        k(   12) = (  -0.3583079   0.6206074   0.0000000), wk =   0.0555556
        k(   13) = (   0.5374618   0.3103037  -0.3951726), wk =   0.0277778
        k(   14) = (  -0.0000000   0.0000000   0.1975863), wk =   0.0185185
        k(   15) = (  -0.0000000  -0.2068691   0.2634484), wk =   0.0555556
        k(   16) = (  -0.0000000   0.8274766  -0.0658621), wk =   0.0555556
        k(   17) = (  -0.0000000   0.6206074   0.0000000), wk =   0.0555556
        k(   18) = (  -0.0000000   0.4137383   0.0658621), wk =   0.0555556
        k(   19) = (  -0.1791539  -0.1034346   0.3293105), wk =   0.0555556
        k(   20) = (  -0.1791539   0.9309112   0.0000000), wk =   0.1111111
        k(   21) = (  -0.1791539   0.7240420   0.0658621), wk =   0.1111111
        k(   22) = (  -0.1791539   0.5171729   0.1317242), wk =   0.1111111
        k(   23) = (   0.7166157   0.4137383  -0.3293105), wk =   0.0555556
        k(   24) = (   0.7166157   0.2068691  -0.2634484), wk =   0.1111111
        k(   25) = (   0.7166157  -0.0000000  -0.1975863), wk =   0.0555556
        k(   26) = (   0.5374618   0.3103037  -0.1975863), wk =   0.0555556
        k(   27) = (  -0.0000000   0.0000000   0.3951726), wk =   0.0185185
        k(   28) = (  -0.0000000   1.0343457   0.0658621), wk =   0.0555556
        k(   29) = (  -0.0000000   0.8274766   0.1317242), wk =   0.0555556
        k(   30) = (   0.8957697   0.5171729  -0.2634484), wk =   0.0555556
        k(   31) = (   0.8957697   0.3103037  -0.1975863), wk =   0.0555556
        k(   32) = (   0.0000000   0.0000000  -0.5927588), wk =   0.0092593

                       cryst. coord.
        k(    1) = (   0.0000000   0.0000000   0.0000000), wk =   0.0092593
        k(    2) = (  -0.0000000  -0.0000000   0.1666667), wk =   0.0555556
        k(    3) = (  -0.0000000  -0.0000000   0.3333333), wk =   0.0555556
        k(    4) = (  -0.0000000  -0.0000000  -0.5000000), wk =   0.0277778
        k(    5) = (   0.0000000   0.1666667   0.1666667), wk =   0.0555556
        k(    6) = (   0.0000000   0.1666667   0.3333333), wk =   0.1111111
        k(    7) = (  -0.0000000   0.1666667  -0.5000000), wk =   0.1111111
        k(    8) = (   0.0000000   0.1666667  -0.3333333), wk =   0.1111111
        k(    9) = (   0.0000000   0.1666667  -0.1666667), wk =   0.0555556
        k(   10) = (   0.0000000   0.3333333   0.3333333), wk =   0.0555556
        k(   11) = (   0.0000000   0.3333333  -0.5000000), wk =   0.1111111
        k(   12) = (   0.0000000   0.3333333  -0.3333333), wk =   0.0555556
        k(   13) = (  -0.0000000  -0.5000000  -0.5000000), wk =   0.0277778
        k(   14) = (   0.1666667   0.1666667   0.1666667), wk =   0.0185185
        k(   15) = (   0.1666667   0.1666667   0.3333333), wk =   0.0555556
        k(   16) = (   0.1666667   0.1666667  -0.5000000), wk =   0.0555556
        k(   17) = (   0.1666667   0.1666667  -0.3333333), wk =   0.0555556
        k(   18) = (   0.1666667   0.1666667  -0.1666667), wk =   0.0555556
        k(   19) = (   0.1666667   0.3333333   0.3333333), wk =   0.0555556
        k(   20) = (   0.1666667   0.3333333  -0.5000000), wk =   0.1111111
        k(   21) = (   0.1666667   0.3333333  -0.3333333), wk =   0.1111111
        k(   22) = (   0.1666667   0.3333333  -0.1666667), wk =   0.1111111
        k(   23) = (   0.1666667  -0.5000000  -0.5000000), wk =   0.0555556
        k(   24) = (   0.1666667  -0.5000000  -0.3333333), wk =   0.1111111
        k(   25) = (   0.1666667  -0.5000000  -0.1666667), wk =   0.0555556
        k(   26) = (   0.1666667  -0.3333333  -0.3333333), wk =   0.0555556
        k(   27) = (   0.3333333   0.3333333   0.3333333), wk =   0.0185185
        k(   28) = (   0.3333333   0.3333333  -0.5000000), wk =   0.0555556
        k(   29) = (   0.3333333   0.3333333  -0.3333333), wk =   0.0555556
        k(   30) = (   0.3333333  -0.5000000  -0.5000000), wk =   0.0555556
        k(   31) = (   0.3333333  -0.5000000  -0.3333333), wk =   0.0555556
        k(   32) = (  -0.5000000  -0.5000000  -0.5000000), wk =   0.0092593

     Dense  grid:    96643 G-vectors     FFT dimensions: (  72,  72,  72)

     Smooth grid:    44923 G-vectors     FFT dimensions: (  54,  54,  54)

     Dynamical RAM for                 wfc:       2.91 MB

     Dynamical RAM for     wfc (w. buffer):      96.15 MB

     Dynamical RAM for           str. fact:       4.42 MB

     Dynamical RAM for           local pot:       0.00 MB

     Dynamical RAM for          nlocal pot:       8.74 MB

     Dynamical RAM for                qrad:       4.82 MB

     Dynamical RAM for          rho,v,vnew:      12.97 MB

     Dynamical RAM for               rhoin:       4.32 MB

     Dynamical RAM for            rho*nmix:      23.59 MB

     Dynamical RAM for           G-vectors:       5.87 MB

     Dynamical RAM for          h,s,v(r/c):       0.21 MB

     Dynamical RAM for          <psi|beta>:       0.05 MB

     Dynamical RAM for                 psi:       5.83 MB

     Dynamical RAM for                hpsi:       5.83 MB

     Dynamical RAM for                spsi:       5.83 MB

     Dynamical RAM for      wfcinit/wfcrot:       5.85 MB

     Dynamical RAM for           addusdens:     283.13 MB

     Dynamical RAM for          addusforce:     298.64 MB

     Dynamical RAM for         addusstress:     296.41 MB

     Estimated static dynamical RAM per process >     157.43 MB

     Estimated max dynamical RAM per process >     479.66 MB

     Check: negative core charge=   -0.000005

     Initial potential from superposition of free atoms

     starting charge      67.0945, renormalised to      68.0000
     Starting wfcs are   54 randomized atomic wfcs
     Checking if some PAW data can be deallocated... 

     total cpu time spent up to now is        1.2 secs

     per-process dynamical memory:   559.0 Mb

     Self-consistent Calculation
[tb_dev] Currently allocated     1.86E+00 Mbytes, locked:    0 /   3
[tb_pin] Currently allocated     0.00E+00 Mbytes, locked:    0 /   0

     iteration #  1     ecut=    60.00 Ry     beta= 0.70
     Davidson diagonalization with overlap

---- Real-time Memory Report at c_bands before calling an iterative solver
           985 MiB given to the printing process from OS
           545 MiB allocation reported by mallinfo(arena+hblkhd)
       1887935 MiB available memory on the node where the printing process lives
     GPU memory used/free/total (MiB): 2281 / 180360 / 182642
------------------
     ethr =  1.00E-02,  avg # of iterations =  1.3

     total cpu time spent up to now is        1.6 secs

     total energy              =    -934.47137913 Ry
     estimated scf accuracy    <       4.41248461 Ry
[tb_dev] Currently allocated     0.00E+00 Mbytes, locked:    0 /   0
[tb_pin] Currently allocated     0.00E+00 Mbytes, locked:    0 /   0

     iteration #  2     ecut=    60.00 Ry     beta= 0.70
     Davidson diagonalization with overlap

---- Real-time Memory Report at c_bands before calling an iterative solver
          1037 MiB given to the printing process from OS
           621 MiB allocation reported by mallinfo(arena+hblkhd)
       1887826 MiB available memory on the node where the printing process lives
     GPU memory used/free/total (MiB): 2281 / 180360 / 182642
------------------
     ethr =  6.49E-03,  avg # of iterations =  8.4

     total cpu time spent up to now is        2.7 secs

     total energy              =    -933.87136989 Ry
     estimated scf accuracy    <      15.62065799 Ry
[tb_dev] Currently allocated     0.00E+00 Mbytes, locked:    0 /   0
[tb_pin] Currently allocated     0.00E+00 Mbytes, locked:    0 /   0

     iteration #  3     ecut=    60.00 Ry     beta= 0.70
     Davidson diagonalization with overlap

---- Real-time Memory Report at c_bands before calling an iterative solver
          1043 MiB given to the printing process from OS
           626 MiB allocation reported by mallinfo(arena+hblkhd)
       1887837 MiB available memory on the node where the printing process lives
     GPU memory used/free/total (MiB): 2283 / 180358 / 182642
------------------
     ethr =  6.49E-03,  avg # of iterations =  5.9

     total cpu time spent up to now is        3.5 secs

     total energy              =    -936.71274882 Ry
     estimated scf accuracy    <       0.05152456 Ry
[tb_dev] Currently allocated     0.00E+00 Mbytes, locked:    0 /   0
[tb_pin] Currently allocated     0.00E+00 Mbytes, locked:    0 /   0

     iteration #  4     ecut=    60.00 Ry     beta= 0.70
     Davidson diagonalization with overlap

---- Real-time Memory Report at c_bands before calling an iterative solver
          1045 MiB given to the printing process from OS
           627 MiB allocation reported by mallinfo(arena+hblkhd)
       1887836 MiB available memory on the node where the printing process lives
     GPU memory used/free/total (MiB): 2283 / 180358 / 182642
------------------
     ethr =  7.58E-05,  avg # of iterations =  8.5

     total cpu time spent up to now is        4.6 secs

     total energy              =    -936.69742571 Ry
     estimated scf accuracy    <       0.29768139 Ry
[tb_dev] Currently allocated     0.00E+00 Mbytes, locked:    0 /   0
[tb_pin] Currently allocated     0.00E+00 Mbytes, locked:    0 /   0

     iteration #  5     ecut=    60.00 Ry     beta= 0.70
     Davidson diagonalization with overlap

---- Real-time Memory Report at c_bands before calling an iterative solver
          1047 MiB given to the printing process from OS
           629 MiB allocation reported by mallinfo(arena+hblkhd)
       1887818 MiB available memory on the node where the printing process lives
     GPU memory used/free/total (MiB): 2283 / 180358 / 182642
------------------
     ethr =  7.58E-05,  avg # of iterations =  9.0

     total cpu time spent up to now is        5.7 secs

     total energy              =    -936.79791254 Ry
     estimated scf accuracy    <       0.53267951 Ry
[tb_dev] Currently allocated     0.00E+00 Mbytes, locked:    0 /   0
[tb_pin] Currently allocated     0.00E+00 Mbytes, locked:    0 /   0

     iteration #  6     ecut=    60.00 Ry     beta= 0.70
     Davidson diagonalization with overlap

---- Real-time Memory Report at c_bands before calling an iterative solver
          1048 MiB given to the printing process from OS
           630 MiB allocation reported by mallinfo(arena+hblkhd)
       1887818 MiB available memory on the node where the printing process lives
     GPU memory used/free/total (MiB): 2283 / 180358 / 182642
------------------
     ethr =  7.58E-05,  avg # of iterations =  6.2

     total cpu time spent up to now is        6.5 secs

     total energy              =    -936.82519275 Ry
     estimated scf accuracy    <       0.05290861 Ry
[tb_dev] Currently allocated     0.00E+00 Mbytes, locked:    0 /   0
[tb_pin] Currently allocated     0.00E+00 Mbytes, locked:    0 /   0

     iteration #  7     ecut=    60.00 Ry     beta= 0.70
     Davidson diagonalization with overlap

---- Real-time Memory Report at c_bands before calling an iterative solver
          1049 MiB given to the printing process from OS
           631 MiB allocation reported by mallinfo(arena+hblkhd)
       1887822 MiB available memory on the node where the printing process lives
     GPU memory used/free/total (MiB): 2283 / 180358 / 182642
------------------
     ethr =  7.58E-05,  avg # of iterations =  4.7

     total cpu time spent up to now is        7.1 secs

     total energy              =    -936.83771202 Ry
     estimated scf accuracy    <       0.00010982 Ry
[tb_dev] Currently allocated     0.00E+00 Mbytes, locked:    0 /   0
[tb_pin] Currently allocated     0.00E+00 Mbytes, locked:    0 /   0

     iteration #  8     ecut=    60.00 Ry     beta= 0.70
     Davidson diagonalization with overlap

---- Real-time Memory Report at c_bands before calling an iterative solver
          1051 MiB given to the printing process from OS
           633 MiB allocation reported by mallinfo(arena+hblkhd)
       1887830 MiB available memory on the node where the printing process lives
     GPU memory used/free/total (MiB): 2283 / 180358 / 182642
------------------
     ethr =  1.61E-07,  avg # of iterations = 14.3

     total cpu time spent up to now is        8.7 secs

     total energy              =    -936.83905136 Ry
     estimated scf accuracy    <       0.00658613 Ry
[tb_dev] Currently allocated     0.00E+00 Mbytes, locked:    0 /   0
[tb_pin] Currently allocated     0.00E+00 Mbytes, locked:    0 /   0

     iteration #  9     ecut=    60.00 Ry     beta= 0.70
     Davidson diagonalization with overlap

---- Real-time Memory Report at c_bands before calling an iterative solver
          1052 MiB given to the printing process from OS
           624 MiB allocation reported by mallinfo(arena+hblkhd)
       1887850 MiB available memory on the node where the printing process lives
     GPU memory used/free/total (MiB): 2283 / 180358 / 182642
------------------
     ethr =  1.61E-07,  avg # of iterations =  7.7

     total cpu time spent up to now is        9.8 secs

     total energy              =    -936.83887939 Ry
     estimated scf accuracy    <       0.00116371 Ry
[tb_dev] Currently allocated     0.00E+00 Mbytes, locked:    0 /   0
[tb_pin] Currently allocated     0.00E+00 Mbytes, locked:    0 /   0

     iteration # 10     ecut=    60.00 Ry     beta= 0.70
     Davidson diagonalization with overlap

---- Real-time Memory Report at c_bands before calling an iterative solver
          1054 MiB given to the printing process from OS
           636 MiB allocation reported by mallinfo(arena+hblkhd)
       1887807 MiB available memory on the node where the printing process lives
     GPU memory used/free/total (MiB): 2283 / 180358 / 182642
------------------
     ethr =  1.61E-07,  avg # of iterations =  7.4

     total cpu time spent up to now is       10.7 secs

     total energy              =    -936.83922547 Ry
     estimated scf accuracy    <       0.00009524 Ry
[tb_dev] Currently allocated     0.00E+00 Mbytes, locked:    0 /   0
[tb_pin] Currently allocated     0.00E+00 Mbytes, locked:    0 /   0

     iteration # 11     ecut=    60.00 Ry     beta= 0.70
     Davidson diagonalization with overlap

---- Real-time Memory Report at c_bands before calling an iterative solver
          1054 MiB given to the printing process from OS
           636 MiB allocation reported by mallinfo(arena+hblkhd)
       1887804 MiB available memory on the node where the printing process lives
     GPU memory used/free/total (MiB): 2283 / 180358 / 182642
------------------
     ethr =  1.40E-07,  avg # of iterations =  1.0

     total cpu time spent up to now is       11.2 secs

     total energy              =    -936.83920087 Ry
     estimated scf accuracy    <       0.00006817 Ry
[tb_dev] Currently allocated     0.00E+00 Mbytes, locked:    0 /   0
[tb_pin] Currently allocated     0.00E+00 Mbytes, locked:    0 /   0

     iteration # 12     ecut=    60.00 Ry     beta= 0.70
     Davidson diagonalization with overlap

---- Real-time Memory Report at c_bands before calling an iterative solver
          1055 MiB given to the printing process from OS
           636 MiB allocation reported by mallinfo(arena+hblkhd)
       1887803 MiB available memory on the node where the printing process lives
     GPU memory used/free/total (MiB): 2283 / 180358 / 182642
------------------
     ethr =  1.00E-07,  avg # of iterations =  2.3

     total cpu time spent up to now is       11.7 secs

     total energy              =    -936.83920913 Ry
     estimated scf accuracy    <       0.00000581 Ry
[tb_dev] Currently allocated     0.00E+00 Mbytes, locked:    0 /   0
[tb_pin] Currently allocated     0.00E+00 Mbytes, locked:    0 /   0

     iteration # 13     ecut=    60.00 Ry     beta= 0.70
     Davidson diagonalization with overlap

---- Real-time Memory Report at c_bands before calling an iterative solver
          1055 MiB given to the printing process from OS
           636 MiB allocation reported by mallinfo(arena+hblkhd)
       1887801 MiB available memory on the node where the printing process lives
     GPU memory used/free/total (MiB): 2283 / 180358 / 182642
------------------
     ethr =  8.54E-09,  avg # of iterations =  5.2

     total cpu time spent up to now is       12.4 secs

     total energy              =    -936.83921223 Ry
     estimated scf accuracy    <       0.00000001 Ry
[tb_dev] Currently allocated     0.00E+00 Mbytes, locked:    0 /   0
[tb_pin] Currently allocated     0.00E+00 Mbytes, locked:    0 /   0

     iteration # 14     ecut=    60.00 Ry     beta= 0.70
     Davidson diagonalization with overlap

---- Real-time Memory Report at c_bands before calling an iterative solver
          1055 MiB given to the printing process from OS
           636 MiB allocation reported by mallinfo(arena+hblkhd)
       1887796 MiB available memory on the node where the printing process lives
     GPU memory used/free/total (MiB): 2283 / 180358 / 182642
------------------
     ethr =  1.95E-11,  avg # of iterations = 14.2

     total cpu time spent up to now is       14.1 secs

     total energy              =    -936.83921232 Ry
     estimated scf accuracy    <       0.00000065 Ry
[tb_dev] Currently allocated     0.00E+00 Mbytes, locked:    0 /   0
[tb_pin] Currently allocated     0.00E+00 Mbytes, locked:    0 /   0

     iteration # 15     ecut=    60.00 Ry     beta= 0.70
     Davidson diagonalization with overlap

---- Real-time Memory Report at c_bands before calling an iterative solver
          1055 MiB given to the printing process from OS
           636 MiB allocation reported by mallinfo(arena+hblkhd)
       1887787 MiB available memory on the node where the printing process lives
     GPU memory used/free/total (MiB): 2283 / 180358 / 182642
------------------
     ethr =  1.95E-11,  avg # of iterations =  7.3

     total cpu time spent up to now is       15.1 secs

     total energy              =    -936.83921233 Ry
     estimated scf accuracy    <       0.00000012 Ry
[tb_dev] Currently allocated     0.00E+00 Mbytes, locked:    0 /   0
[tb_pin] Currently allocated     0.00E+00 Mbytes, locked:    0 /   0

     iteration # 16     ecut=    60.00 Ry     beta= 0.70
     Davidson diagonalization with overlap

---- Real-time Memory Report at c_bands before calling an iterative solver
          1055 MiB given to the printing process from OS
           636 MiB allocation reported by mallinfo(arena+hblkhd)
       1887750 MiB available memory on the node where the printing process lives
     GPU memory used/free/total (MiB): 2283 / 180358 / 182642
------------------
     ethr =  1.95E-11,  avg # of iterations =  6.0

     total cpu time spent up to now is       15.9 secs

     total energy              =    -936.83921233 Ry
     estimated scf accuracy    <       0.00000001 Ry
[tb_dev] Currently allocated     0.00E+00 Mbytes, locked:    0 /   0
[tb_pin] Currently allocated     0.00E+00 Mbytes, locked:    0 /   0

     iteration # 17     ecut=    60.00 Ry     beta= 0.70
     Davidson diagonalization with overlap

---- Real-time Memory Report at c_bands before calling an iterative solver
          1055 MiB given to the printing process from OS
           636 MiB allocation reported by mallinfo(arena+hblkhd)
       1887752 MiB available memory on the node where the printing process lives
     GPU memory used/free/total (MiB): 2283 / 180358 / 182642
------------------
     ethr =  1.91E-11,  avg # of iterations =  4.9

     total cpu time spent up to now is       16.6 secs

     total energy              =    -936.83921234 Ry
     estimated scf accuracy    <          2.4E-09 Ry
[tb_dev] Currently allocated     0.00E+00 Mbytes, locked:    0 /   0
[tb_pin] Currently allocated     0.00E+00 Mbytes, locked:    0 /   0

     iteration # 18     ecut=    60.00 Ry     beta= 0.70
     Davidson diagonalization with overlap

---- Real-time Memory Report at c_bands before calling an iterative solver
          1055 MiB given to the printing process from OS
           636 MiB allocation reported by mallinfo(arena+hblkhd)
       1887754 MiB available memory on the node where the printing process lives
     GPU memory used/free/total (MiB): 2283 / 180358 / 182642
------------------
     ethr =  3.48E-12,  avg # of iterations =  2.9

     total cpu time spent up to now is       17.1 secs

     total energy              =    -936.83921234 Ry
     estimated scf accuracy    <          1.3E-09 Ry
[tb_dev] Currently allocated     0.00E+00 Mbytes, locked:    0 /   0
[tb_pin] Currently allocated     0.00E+00 Mbytes, locked:    0 /   0

     iteration # 19     ecut=    60.00 Ry     beta= 0.70
     Davidson diagonalization with overlap

---- Real-time Memory Report at c_bands before calling an iterative solver
          1055 MiB given to the printing process from OS
           636 MiB allocation reported by mallinfo(arena+hblkhd)
       1887750 MiB available memory on the node where the printing process lives
     GPU memory used/free/total (MiB): 2283 / 180358 / 182642
------------------
     ethr =  1.87E-12,  avg # of iterations =  5.3

     total cpu time spent up to now is       17.8 secs

     total energy              =    -936.83921234 Ry
     estimated scf accuracy    <          3.7E-10 Ry
[tb_dev] Currently allocated     0.00E+00 Mbytes, locked:    0 /   0
[tb_pin] Currently allocated     0.00E+00 Mbytes, locked:    0 /   0

     iteration # 20     ecut=    60.00 Ry     beta= 0.70
     Davidson diagonalization with overlap

---- Real-time Memory Report at c_bands before calling an iterative solver
          1055 MiB given to the printing process from OS
           636 MiB allocation reported by mallinfo(arena+hblkhd)
       1887743 MiB available memory on the node where the printing process lives
     GPU memory used/free/total (MiB): 2283 / 180358 / 182642
------------------
     ethr =  5.41E-13,  avg # of iterations =  3.1

     total cpu time spent up to now is       18.4 secs

     total energy              =    -936.83921234 Ry
     estimated scf accuracy    <          4.5E-10 Ry
[tb_dev] Currently allocated     0.00E+00 Mbytes, locked:    0 /   0
[tb_pin] Currently allocated     0.00E+00 Mbytes, locked:    0 /   0

     iteration # 21     ecut=    60.00 Ry     beta= 0.70
     Davidson diagonalization with overlap

---- Real-time Memory Report at c_bands before calling an iterative solver
          1055 MiB given to the printing process from OS
           636 MiB allocation reported by mallinfo(arena+hblkhd)
       1887739 MiB available memory on the node where the printing process lives
     GPU memory used/free/total (MiB): 2283 / 180358 / 182642
------------------
     ethr =  5.41E-13,  avg # of iterations =  2.1

     total cpu time spent up to now is       18.8 secs

     total energy              =    -936.83921234 Ry
     estimated scf accuracy    <          1.3E-10 Ry
[tb_dev] Currently allocated     0.00E+00 Mbytes, locked:    0 /   0
[tb_pin] Currently allocated     0.00E+00 Mbytes, locked:    0 /   0

     iteration # 22     ecut=    60.00 Ry     beta= 0.70
     Davidson diagonalization with overlap

---- Real-time Memory Report at c_bands before calling an iterative solver
          1055 MiB given to the printing process from OS
           636 MiB allocation reported by mallinfo(arena+hblkhd)
       1887736 MiB available memory on the node where the printing process lives
     GPU memory used/free/total (MiB): 2283 / 180358 / 182642
------------------
     ethr =  1.86E-13,  avg # of iterations =  5.8

     total cpu time spent up to now is       19.6 secs

     total energy              =    -936.83921234 Ry
     estimated scf accuracy    <          5.8E-11 Ry
[tb_dev] Currently allocated     0.00E+00 Mbytes, locked:    0 /   0
[tb_pin] Currently allocated     0.00E+00 Mbytes, locked:    0 /   0

     iteration # 23     ecut=    60.00 Ry     beta= 0.70
     Davidson diagonalization with overlap

---- Real-time Memory Report at c_bands before calling an iterative solver
          1055 MiB given to the printing process from OS
           636 MiB allocation reported by mallinfo(arena+hblkhd)
       1887737 MiB available memory on the node where the printing process lives
     GPU memory used/free/total (MiB): 2283 / 180358 / 182642
------------------
     ethr =  1.00E-13,  avg # of iterations =  1.8

     total cpu time spent up to now is       20.1 secs

     total energy              =    -936.83921234 Ry
     estimated scf accuracy    <          1.8E-11 Ry
[tb_dev] Currently allocated     0.00E+00 Mbytes, locked:    0 /   0
[tb_pin] Currently allocated     0.00E+00 Mbytes, locked:    0 /   0

     iteration # 24     ecut=    60.00 Ry     beta= 0.70
     Davidson diagonalization with overlap

---- Real-time Memory Report at c_bands before calling an iterative solver
          1055 MiB given to the printing process from OS
           636 MiB allocation reported by mallinfo(arena+hblkhd)
       1887735 MiB available memory on the node where the printing process lives
     GPU memory used/free/total (MiB): 2283 / 180358 / 182642
------------------
     ethr =  1.00E-13,  avg # of iterations =  1.0

     total cpu time spent up to now is       20.5 secs

     total energy              =    -936.83921234 Ry
     estimated scf accuracy    <          1.2E-11 Ry
[tb_dev] Currently allocated     0.00E+00 Mbytes, locked:    0 /   0
[tb_pin] Currently allocated     0.00E+00 Mbytes, locked:    0 /   0

     iteration # 25     ecut=    60.00 Ry     beta= 0.70
     Davidson diagonalization with overlap

---- Real-time Memory Report at c_bands before calling an iterative solver
          1055 MiB given to the printing process from OS
           636 MiB allocation reported by mallinfo(arena+hblkhd)
       1887719 MiB available memory on the node where the printing process lives
     GPU memory used/free/total (MiB): 2283 / 180358 / 182642
------------------
     ethr =  1.00E-13,  avg # of iterations =  1.0

     total cpu time spent up to now is       20.9 secs

     total energy              =    -936.83921234 Ry
     estimated scf accuracy    <          1.1E-11 Ry
[tb_dev] Currently allocated     0.00E+00 Mbytes, locked:    0 /   0
[tb_pin] Currently allocated     0.00E+00 Mbytes, locked:    0 /   0

     iteration # 26     ecut=    60.00 Ry     beta= 0.70
     Davidson diagonalization with overlap

---- Real-time Memory Report at c_bands before calling an iterative solver
          1055 MiB given to the printing process from OS
           636 MiB allocation reported by mallinfo(arena+hblkhd)
       1887722 MiB available memory on the node where the printing process lives
     GPU memory used/free/total (MiB): 2283 / 180358 / 182642
------------------
     ethr =  1.00E-13,  avg # of iterations =  1.0

     total cpu time spent up to now is       21.3 secs

     total energy              =    -936.83921234 Ry
     estimated scf accuracy    <          9.2E-12 Ry
[tb_dev] Currently allocated     0.00E+00 Mbytes, locked:    0 /   0
[tb_pin] Currently allocated     0.00E+00 Mbytes, locked:    0 /   0

     iteration # 27     ecut=    60.00 Ry     beta= 0.70
     Davidson diagonalization with overlap

---- Real-time Memory Report at c_bands before calling an iterative solver
          1055 MiB given to the printing process from OS
           636 MiB allocation reported by mallinfo(arena+hblkhd)
       1888386 MiB available memory on the node where the printing process lives
     GPU memory used/free/total (MiB): 2283 / 180358 / 182642
------------------
     ethr =  1.00E-13,  avg # of iterations =  1.0

     total cpu time spent up to now is       21.7 secs

     total energy              =    -936.83921234 Ry
     estimated scf accuracy    <          7.6E-12 Ry
[tb_dev] Currently allocated     0.00E+00 Mbytes, locked:    0 /   0
[tb_pin] Currently allocated     0.00E+00 Mbytes, locked:    0 /   0

     iteration # 28     ecut=    60.00 Ry     beta= 0.70
     Davidson diagonalization with overlap

---- Real-time Memory Report at c_bands before calling an iterative solver
          1055 MiB given to the printing process from OS
           636 MiB allocation reported by mallinfo(arena+hblkhd)
       1888700 MiB available memory on the node where the printing process lives
     GPU memory used/free/total (MiB): 2283 / 180358 / 182642
------------------
     ethr =  1.00E-13,  avg # of iterations =  1.0

     total cpu time spent up to now is       22.2 secs

     total energy              =    -936.83921234 Ry
     estimated scf accuracy    <          1.1E-12 Ry
[tb_dev] Currently allocated     0.00E+00 Mbytes, locked:    0 /   0
[tb_pin] Currently allocated     0.00E+00 Mbytes, locked:    0 /   0

     iteration # 29     ecut=    60.00 Ry     beta= 0.70
     Davidson diagonalization with overlap

---- Real-time Memory Report at c_bands before calling an iterative solver
          1055 MiB given to the printing process from OS
           636 MiB allocation reported by mallinfo(arena+hblkhd)
       1888699 MiB available memory on the node where the printing process lives
     GPU memory used/free/total (MiB): 2283 / 180358 / 182642
------------------
     ethr =  1.00E-13,  avg # of iterations =  1.0

     total cpu time spent up to now is       22.6 secs

     End of self-consistent calculation

          k = 0.0000 0.0000 0.0000 (  5577 PWs)   bands (ev):

   -46.8646 -46.8490 -34.6477 -34.6448 -23.2189 -23.2189 -23.1488 -23.0583
   -23.0583 -22.9545  -9.7013  -9.0274  -9.0274  -8.0924  -7.8711  -7.8711
     2.6881   2.6881   2.8805   2.9874   2.9874   3.8727   5.0937   5.1306
     5.1306   5.9614   6.3493   6.3493   6.5058   6.5752   6.5752   6.7122
     7.2114   7.2114

     occupation numbers 
     1.0000   1.0000   1.0000   1.0000   1.0000   1.0000   1.0000   1.0000
     1.0000   1.0000   1.0000   1.0000   1.0000   1.0000   1.0000   1.0000
     1.0000   1.0000   1.0000   1.0000   1.0000   1.0000   1.0000   1.0000
     1.0000   1.0000   1.0000   1.0000   1.0000   1.0000   1.0000   1.0000
     1.0000   1.0000

          k =-0.0000-0.2069 0.0659 (  5610 PWs)   bands (ev):

   -46.8635 -46.8501 -34.6476 -34.6450 -23.2101 -23.2087 -23.1355 -23.0708
   -23.0697 -22.9675  -9.5902  -8.9653  -8.9627  -8.1709  -7.9810  -7.9625
     2.6402   2.7432   3.0524   3.2173   3.2445   3.9314   4.7796   4.8680
     4.9519   5.9325   6.0949   6.3699   6.3772   6.6790   6.7491   6.8018
     7.0654   7.1247

     occupation numbers 
     1.0000   1.0000   1.0000   1.0000   1.0000   1.0000   1.0000   1.0000
     1.0000   1.0000   1.0000   1.0000   1.0000   1.0000   1.0000   1.0000
     1.0000   1.0000   1.0000   1.0000   1.0000   1.0000   1.0000   1.0000
     1.0000   1.0000   1.0000   1.0000   1.0000   1.0000   1.0000   1.0000
     1.0000   1.0000

          k =-0.0000-0.4137 0.1317 (  5599 PWs)   bands (ev):

   -46.8607 -46.8529 -34.6471 -34.6456 -23.1844 -23.1806 -23.1036 -23.1010
   -23.0990 -23.0029  -9.2846  -8.7981  -8.7839  -8.4113  -8.2421  -8.1959
     2.8061   2.9737   3.3298   3.7227   3.7865   4.0571   4.1011   4.4564
     4.6825   5.3671   5.7285   6.0301   6.6282   6.6861   6.7387   6.8663
     6.9862   7.1231

     occupation numbers 
     1.0000   1.0000   1.0000   1.0000   1.0000   1.0000   1.0000   1.0000
     1.0000   1.0000   1.0000   1.0000   1.0000   1.0000   1.0000   1.0000
     1.0000   1.0000   1.0000   1.0000   1.0000   1.0000   1.0000   1.0000
     1.0000   1.0000   1.0000   1.0000   1.0000   1.0000   1.0000   1.0000
     1.0000   1.0000

          k = 0.0000 0.6206-0.1976 (  5626 PWs)   bands (ev):

   -46.8568 -46.8568 -34.6464 -34.6464 -23.1458 -23.1458 -23.1410 -23.1410
   -23.0512 -23.0512  -8.8746  -8.8746  -8.5462  -8.5462  -8.4580  -8.4580
     3.1857   3.1857   3.4593   3.4593   3.9293   3.9293   4.4103   4.4103
     4.9101   4.9101   5.3535   5.3535   6.7630   6.7630   6.9026   6.9026
     6.9904   6.9904

     occupation numbers 
     1.0000   1.0000   1.0000   1.0000   1.0000   1.0000   1.0000   1.0000
     1.0000   1.0000   1.0000   1.0000   1.0000   1.0000   1.0000   1.0000
     1.0000   1.0000   1.0000   1.0000   1.0000   1.0000   1.0000   1.0000
     1.0000   1.0000   1.0000   1.0000   1.0000   1.0000   1.0000   1.0000
     1.0000   1.0000

          k =-0.1792-0.1034 0.1317 (  5606 PWs)   bands (ev):

   -46.8633 -46.8503 -34.6475 -34.6451 -23.2217 -23.2001 -23.1243 -23.0942
   -23.0563 -22.9660  -9.5820  -9.0083  -8.8648  -8.2794  -7.9926  -7.9093
     2.6835   2.7545   2.9287   3.2705   3.3346   4.0897   4.3875   5.0453
     5.1190   5.9314   6.0405   6.2630   6.3997   6.5200   6.6670   6.7972
     7.0892   7.1419

     occupation numbers 
     1.0000   1.0000   1.0000   1.0000   1.0000   1.0000   1.0000   1.0000
     1.0000   1.0000   1.0000   1.0000   1.0000   1.0000   1.0000   1.0000
     1.0000   1.0000   1.0000   1.0000   1.0000   1.0000   1.0000   1.0000
     1.0000   1.0000   1.0000   1.0000   1.0000   1.0000   1.0000   1.0000
     1.0000   1.0000

          k =-0.1792-0.3103 0.1976 (  5614 PWs)   bands (ev):

   -46.8613 -46.8523 -34.6472 -34.6455 -23.2146 -23.1833 -23.1356 -23.0853
   -23.0668 -22.9829  -9.4021  -8.9296  -8.6686  -8.5327  -8.1074  -8.0396
     2.6325   2.9137   3.2802   3.4859   3.6488   3.8911   4.4198   4.6274
     5.0352   5.5719   5.9270   6.2242   6.3311   6.4888   6.6117   6.8329
     6.9633   7.1277

     occupation numbers 
     1.0000   1.0000   1.0000   1.0000   1.0000   1.0000   1.0000   1.0000
     1.0000   1.0000   1.0000   1.0000   1.0000   1.0000   1.0000   1.0000
     1.0000   1.0000   1.0000   1.0000   1.0000   1.0000   1.0000   1.0000
     1.0000   1.0000   1.0000   1.0000   1.0000   1.0000   1.0000   1.0000
     1.0000   1.0000

          k =-0.1792 0.7240-0.1317 (  5615 PWs)   bands (ev):

   -46.8581 -46.8555 -34.6466 -34.6461 -23.1885 -23.1771 -23.1512 -23.0985
   -23.0403 -23.0185  -9.0842  -8.8904  -8.7441  -8.3676  -8.3503  -8.2834
     2.8198   3.0482   3.2845   3.7182   3.9283   4.0359   4.2468   4.5205
     4.7710   5.1939   5.6380   5.9695   6.4136   6.6259   6.6684   6.7906
     6.9763   7.0694

     occupation numbers 
     1.0000   1.0000   1.0000   1.0000   1.0000   1.0000   1.0000   1.0000
     1.0000   1.0000   1.0000   1.0000   1.0000   1.0000   1.0000   1.0000
     1.0000   1.0000   1.0000   1.0000   1.0000   1.0000   1.0000   1.0000
     1.0000   1.0000   1.0000   1.0000   1.0000   1.0000   1.0000   1.0000
     1.0000   1.0000

          k =-0.1792 0.5172-0.0659 (  5605 PWs)   bands (ev):

   -46.8590 -46.8545 -34.6468 -34.6459 -23.2057 -23.1486 -23.1405 -23.1105
   -23.0651 -23.0033  -9.1924  -8.7434  -8.6530  -8.5482  -8.4656  -8.1126
     2.7546   3.1856   3.3356   3.4727   3.6849   4.1011   4.3589   4.5596
     4.8763   5.2677   5.5407   6.1832   6.3062   6.5267   6.7120   6.9029
     6.9605   7.1028

     occupation numbers 
     1.0000   1.0000   1.0000   1.0000   1.0000   1.0000   1.0000   1.0000
     1.0000   1.0000   1.0000   1.0000   1.0000   1.0000   1.0000   1.0000
     1.0000   1.0000   1.0000   1.0000   1.0000   1.0000   1.0000   1.0000
     1.0000   1.0000   1.0000   1.0000   1.0000   1.0000   1.0000   1.0000
     1.0000   1.0000

          k =-0.1792 0.3103 0.0000 (  5622 PWs)   bands (ev):

   -46.8620 -46.8516 -34.6473 -34.6453 -23.2151 -23.1809 -23.1100 -23.1047
   -23.0770 -22.9801  -9.4425  -8.9086  -8.8056  -8.3355  -8.2035  -7.9759
     2.6651   2.8607   3.1933   3.2826   3.7369   4.0892   4.2274   4.4666
     5.1497   5.7827   5.9959   6.1477   6.4634   6.5885   6.6883   6.8559
     6.9219   7.1586

     occupation numbers 
     1.0000   1.0000   1.0000   1.0000   1.0000   1.0000   1.0000   1.0000
     1.0000   1.0000   1.0000   1.0000   1.0000   1.0000   1.0000   1.0000
     1.0000   1.0000   1.0000   1.0000   1.0000   1.0000   1.0000   1.0000
     1.0000   1.0000   1.0000   1.0000   1.0000   1.0000   1.0000   1.0000
     1.0000   1.0000

          k =-0.3583-0.2069 0.2634 (  5615 PWs)   bands (ev):

   -46.8607 -46.8529 -34.6471 -34.6456 -23.2275 -23.1918 -23.1794 -23.0526
   -23.0436 -22.9733  -9.4128  -8.9703  -8.7847  -8.4291  -8.0570  -7.9895
     2.6411   2.8010   3.0081   3.1674   3.7466   4.0906   4.7319   4.9337
     5.3840   5.6545   5.8848   6.1099   6.1215   6.3807   6.4446   6.7740
     6.7986   7.0569

     occupation numbers 
     1.0000   1.0000   1.0000   1.0000   1.0000   1.0000   1.0000   1.0000
     1.0000   1.0000   1.0000   1.0000   1.0000   1.0000   1.0000   1.0000
     1.0000   1.0000   1.0000   1.0000   1.0000   1.0000   1.0000   1.0000
     1.0000   1.0000   1.0000   1.0000   1.0000   1.0000   1.0000   1.0000
     1.0000   1.0000

          k =-0.3583 0.8275-0.0659 (  5634 PWs)   bands (ev):

   -46.8590 -46.8545 -34.6468 -34.6459 -23.2195 -23.2108 -23.1799 -23.0634
   -23.0106 -22.9863  -9.2762  -8.9959  -8.8894  -8.2228  -8.1541  -8.1050
     2.5924   2.7456   2.9743   3.2942   3.9867   4.3342   4.5372   4.9782
     5.2143   5.5948   5.8448   6.0021   6.1242   6.3358   6.4717   6.6056
     6.8302   7.0776

     occupation numbers 
     1.0000   1.0000   1.0000   1.0000   1.0000   1.0000   1.0000   1.0000
     1.0000   1.0000   1.0000   1.0000   1.0000   1.0000   1.0000   1.0000
     1.0000   1.0000   1.0000   1.0000   1.0000   1.0000   1.0000   1.0000
     1.0000   1.0000   1.0000   1.0000   1.0000   1.0000   1.0000   1.0000
     1.0000   1.0000

          k =-0.3583 0.6206 0.0000 (  5628 PWs)   bands (ev):

   -46.8568 -46.8568 -34.6464 -34.6464 -23.2201 -23.1910 -23.1482 -23.0964
   -23.0203 -22.9975  -9.1266  -9.0157  -8.7225  -8.4026  -8.3127  -8.0992
     2.6189   2.8225   3.2667   3.6001   3.9217   4.0064   4.4799   4.8134
     5.0483   5.3860   5.7148   5.9561   6.3353   6.3868   6.5016   6.7800
     6.8587   7.0888

     occupation numbers 
     1.0000   1.0000   1.0000   1.0000   1.0000   1.0000   1.0000   1.0000
     1.0000   1.0000   1.0000   1.0000   1.0000   1.0000   1.0000   1.0000
     1.0000   1.0000   1.0000   1.0000   1.0000   1.0000   1.0000   1.0000
     1.0000   1.0000   1.0000   1.0000   1.0000   1.0000   1.0000   1.0000
     1.0000   1.0000

          k = 0.5375 0.3103-0.3952 (  5630 PWs)   bands (ev):

   -46.8594 -46.8542 -34.6469 -34.6458 -23.2306 -23.2236 -23.1920 -23.0502
   -22.9983 -22.9739  -9.3481  -9.0420  -8.9380  -8.1687  -8.0793  -8.0286
     2.6096   2.6284   2.7963   2.9374   4.2944   4.5334   4.8261   5.2011
     5.2806   5.3894   5.8448   5.8921   6.1668   6.2489   6.4979   6.5332
     6.7534   7.0174

     occupation numbers 
     1.0000   1.0000   1.0000   1.0000   1.0000   1.0000   1.0000   1.0000
     1.0000   1.0000   1.0000   1.0000   1.0000   1.0000   1.0000   1.0000
     1.0000   1.0000   1.0000   1.0000   1.0000   1.0000   1.0000   1.0000
     1.0000   1.0000   1.0000   1.0000   1.0000   1.0000   1.0000   1.0000
     1.0000   1.0000

          k =-0.0000 0.0000 0.1976 (  5578 PWs)   bands (ev):

   -46.8635 -46.8501 -34.6476 -34.6450 -23.2085 -23.2085 -23.1366 -23.0695
   -23.0695 -22.9684  -9.6036  -8.9572  -8.9572  -8.2131  -7.9575  -7.9575
     2.7871   2.7871   3.0239   3.1966   3.1966   3.9787   4.8728   4.9058
     4.9058   6.0222   6.0222   6.0605   6.2665   6.5999   6.5999   6.7448
     7.2211   7.2211

     occupation numbers 
     1.0000   1.0000   1.0000   1.0000   1.0000   1.0000   1.0000   1.0000
     1.0000   1.0000   1.0000   1.0000   1.0000   1.0000   1.0000   1.0000
     1.0000   1.0000   1.0000   1.0000   1.0000   1.0000   1.0000   1.0000
     1.0000   1.0000   1.0000   1.0000   1.0000   1.0000   1.0000   1.0000
     1.0000   1.0000

          k =-0.0000-0.2069 0.2634 (  5594 PWs)   bands (ev):

   -46.8620 -46.8516 -34.6473 -34.6453 -23.2153 -23.1775 -23.1118 -23.1022
   -23.0779 -22.9810  -9.4625  -8.8965  -8.7976  -8.3980  -8.1592  -7.9778
     2.6947   2.9351   3.2364   3.4811   3.6276   4.1281   4.3831   4.5120
     4.9241   5.4633   5.9059   6.1607   6.2311   6.5756   6.7483   6.7780
     7.0842   7.1300

     occupation numbers 
     1.0000   1.0000   1.0000   1.0000   1.0000   1.0000   1.0000   1.0000
     1.0000   1.0000   1.0000   1.0000   1.0000   1.0000   1.0000   1.0000
     1.0000   1.0000   1.0000   1.0000   1.0000   1.0000   1.0000   1.0000
     1.0000   1.0000   1.0000   1.0000   1.0000   1.0000   1.0000   1.0000
     1.0000   1.0000

          k =-0.0000 0.8275-0.0659 (  5614 PWs)   bands (ev):

   -46.8590 -46.8545 -34.6468 -34.6459 -23.2068 -23.1451 -23.1366 -23.1133
   -23.0671 -23.0034  -9.2016  -8.7434  -8.7027  -8.5289  -8.4256  -8.1262
     2.7114   3.1413   3.5657   3.7162   3.8320   4.1089   4.1286   4.5957
     4.7586   4.8834   5.6247   6.1024   6.4105   6.4769   6.7533   6.8483
     6.9738   7.0124

     occupation numbers 
     1.0000   1.0000   1.0000   1.0000   1.0000   1.0000   1.0000   1.0000
     1.0000   1.0000   1.0000   1.0000   1.0000   1.0000   1.0000   1.0000
     1.0000   1.0000   1.0000   1.0000   1.0000   1.0000   1.0000   1.0000
     1.0000   1.0000   1.0000   1.0000   1.0000   1.0000   1.0000   1.0000
     1.0000   1.0000

          k =-0.0000 0.6206 0.0000 (  5611 PWs)   bands (ev):

   -46.8581 -46.8555 -34.6466 -34.6461 -23.1860 -23.1784 -23.1544 -23.0959
   -23.0398 -23.0196  -9.0886  -8.8899  -8.7322  -8.3788  -8.3659  -8.2643
     2.9679   3.0928   3.1823   3.4003   3.8333   4.0899   4.4014   4.6596
     4.9764   5.1804   5.5889   5.8067   6.3956   6.6143   6.6852   6.8218
     6.8752   7.1070

     occupation numbers 
     1.0000   1.0000   1.0000   1.0000   1.0000   1.0000   1.0000   1.0000
     1.0000   1.0000   1.0000   1.0000   1.0000   1.0000   1.0000   1.0000
     1.0000   1.0000   1.0000   1.0000   1.0000   1.0000   1.0000   1.0000
     1.0000   1.0000   1.0000   1.0000   1.0000   1.0000   1.0000   1.0000
     1.0000   1.0000

          k =-0.0000 0.4137 0.0659 (  5602 PWs)   bands (ev):

   -46.8613 -46.8523 -34.6472 -34.6455 -23.2137 -23.1852 -23.1365 -23.0848
   -23.0661 -22.9829  -9.3961  -8.9368  -8.6510  -8.5397  -8.1200  -8.0298
     2.7576   2.8871   2.9871   3.5701   3.6093   3.8369   4.4311   4.7704
     5.0369   5.7702   5.9885   6.1691   6.3060   6.3997   6.6358   6.8502
     6.9448   7.1300

     occupation numbers 
     1.0000   1.0000   1.0000   1.0000   1.0000   1.0000   1.0000   1.0000
     1.0000   1.0000   1.0000   1.0000   1.0000   1.0000   1.0000   1.0000
     1.0000   1.0000   1.0000   1.0000   1.0000   1.0000   1.0000   1.0000
     1.0000   1.0000   1.0000   1.0000   1.0000   1.0000   1.0000   1.0000
     1.0000   1.0000

          k =-0.1792-0.1034 0.3293 (  5608 PWs)   bands (ev):

   -46.8613 -46.8523 -34.6472 -34.6455 -23.2132 -23.1827 -23.1346 -23.0862
   -23.0657 -22.9840  -9.4227  -8.9177  -8.6415  -8.5798  -8.1191  -8.0192
     2.8158   2.9135   3.2768   3.5588   3.6188   3.8991   4.4536   4.7909
     4.9005   5.4910   5.7185   6.1419   6.2311   6.4021   6.5152   6.8196
     7.0114   7.1460

     occupation numbers 
     1.0000   1.0000   1.0000   1.0000   1.0000   1.0000   1.0000   1.0000
     1.0000   1.0000   1.0000   1.0000   1.0000   1.0000   1.0000   1.0000
     1.0000   1.0000   1.0000   1.0000   1.0000   1.0000   1.0000   1.0000
     1.0000   1.0000   1.0000   1.0000   1.0000   1.0000   1.0000   1.0000
     1.0000   1.0000

          k =-0.1792 0.9309 0.0000 (  5619 PWs)   bands (ev):

   -46.8594 -46.8542 -34.6469 -34.6459 -23.2187 -23.1777 -23.1593 -23.0817
   -23.0428 -22.9896  -9.2892  -8.8542  -8.8145  -8.3970  -8.2954  -8.0467
     2.6779   2.9913   3.2458   3.6749   3.7320   4.1072   4.3157   4.7813
     5.0368   5.3537   5.7984   5.9622   6.1680   6.3653   6.5433   6.7583
     6.8950   7.0364

     occupation numbers 
     1.0000   1.0000   1.0000   1.0000   1.0000   1.0000   1.0000   1.0000
     1.0000   1.0000   1.0000   1.0000   1.0000   1.0000   1.0000   1.0000
     1.0000   1.0000   1.0000   1.0000   1.0000   1.0000   1.0000   1.0000
     1.0000   1.0000   1.0000   1.0000   1.0000   1.0000   1.0000   1.0000
     1.0000   1.0000

          k =-0.1792 0.7240 0.0659 (  5627 PWs)   bands (ev):

   -46.8568 -46.8568 -34.6464 -34.6464 -23.2096 -23.2083 -23.1209 -23.1190
   -23.0077 -23.0071  -9.0944  -9.0794  -8.6336  -8.5363  -8.1809  -8.1613
     2.6981   2.8103   3.2448   3.4992   3.9600   4.3428   4.3698   4.6710
     4.9968   5.3950   5.8693   5.9707   6.0851   6.3528   6.5468   6.7214
     6.9013   7.0213

     occupation numbers 
     1.0000   1.0000   1.0000   1.0000   1.0000   1.0000   1.0000   1.0000
     1.0000   1.0000   1.0000   1.0000   1.0000   1.0000   1.0000   1.0000
     1.0000   1.0000   1.0000   1.0000   1.0000   1.0000   1.0000   1.0000
     1.0000   1.0000   1.0000   1.0000   1.0000   1.0000   1.0000   1.0000
     1.0000   1.0000

          k =-0.1792 0.5172 0.1317 (  5629 PWs)   bands (ev):

   -46.8594 -46.8542 -34.6469 -34.6459 -23.2187 -23.1792 -23.1614 -23.0817
   -23.0419 -22.9891  -9.2722  -8.8520  -8.8058  -8.3986  -8.3066  -8.0421
     2.6392   2.9949   3.1045   3.4103   3.7582   4.1583   4.3261   4.9039
     5.0707   5.5887   5.7273   6.0371   6.2966   6.4785   6.5623   6.6755
     6.8921   7.1091

     occupation numbers 
     1.0000   1.0000   1.0000   1.0000   1.0000   1.0000   1.0000   1.0000
     1.0000   1.0000   1.0000   1.0000   1.0000   1.0000   1.0000   1.0000
     1.0000   1.0000   1.0000   1.0000   1.0000   1.0000   1.0000   1.0000
     1.0000   1.0000   1.0000   1.0000   1.0000   1.0000   1.0000   1.0000
     1.0000   1.0000

          k = 0.7166 0.4137-0.3293 (  5621 PWs)   bands (ev):

   -46.8590 -46.8545 -34.6468 -34.6459 -23.2184 -23.2104 -23.1801 -23.0623
   -23.0108 -22.9871  -9.2903  -9.0044  -8.8780  -8.2245  -8.1712  -8.0884
     2.7651   2.8184   2.8724   3.2316   4.0811   4.2511   4.6364   4.9172
     5.3887   5.4905   5.8342   5.8487   6.1650   6.2267   6.4414   6.5520
     6.7124   7.0709

     occupation numbers 
     1.0000   1.0000   1.0000   1.0000   1.0000   1.0000   1.0000   1.0000
     1.0000   1.0000   1.0000   1.0000   1.0000   1.0000   1.0000   1.0000
     1.0000   1.0000   1.0000   1.0000   1.0000   1.0000   1.0000   1.0000
     1.0000   1.0000   1.0000   1.0000   1.0000   1.0000   1.0000   1.0000
     1.0000   1.0000

          k = 0.7166 0.2069-0.2634 (  5619 PWs)   bands (ev):

   -46.8581 -46.8555 -34.6467 -34.6461 -23.2225 -23.2206 -23.1594 -23.0801
   -22.9980 -22.9901  -9.2186  -9.0823  -8.7961  -8.3397  -8.1344  -8.0764
     2.6174   2.6451   3.0143   3.5115   3.7903   4.5213   4.6925   4.8643
     5.3445   5.4786   5.7084   5.8430   6.1028   6.2603   6.5445   6.6231
     6.7594   7.0553

     occupation numbers 
     1.0000   1.0000   1.0000   1.0000   1.0000   1.0000   1.0000   1.0000
     1.0000   1.0000   1.0000   1.0000   1.0000   1.0000   1.0000   1.0000
     1.0000   1.0000   1.0000   1.0000   1.0000   1.0000   1.0000   1.0000
     1.0000   1.0000   1.0000   1.0000   1.0000   1.0000   1.0000   1.0000
     1.0000   1.0000

          k = 0.7166-0.0000-0.1976 (  5620 PWs)   bands (ev):

   -46.8568 -46.8568 -34.6464 -34.6464 -23.2091 -23.2091 -23.1205 -23.1205
   -23.0071 -23.0071  -9.0818  -9.0818  -8.5895  -8.5895  -8.1683  -8.1683
     2.7099   2.7099   3.3866   3.3866   4.0932   4.0932   4.5327   4.5327
     5.1875   5.1875   5.9687   5.9687   6.2778   6.2778   6.6403   6.6403
     6.9944   6.9944

     occupation numbers 
     1.0000   1.0000   1.0000   1.0000   1.0000   1.0000   1.0000   1.0000
     1.0000   1.0000   1.0000   1.0000   1.0000   1.0000   1.0000   1.0000
     1.0000   1.0000   1.0000   1.0000   1.0000   1.0000   1.0000   1.0000
     1.0000   1.0000   1.0000   1.0000   1.0000   1.0000   1.0000   1.0000
     1.0000   1.0000

          k = 0.5375 0.3103-0.1976 (  5631 PWs)   bands (ev):

   -46.8590 -46.8545 -34.6469 -34.6459 -23.2187 -23.2111 -23.1809 -23.0625
   -23.0106 -22.9867  -9.2779  -8.9983  -8.8831  -8.2279  -8.1627  -8.0935
     2.6948   2.8123   2.8752   3.0940   4.0537   4.3568   4.6633   4.9239
     5.3185   5.4550   5.9073   6.0763   6.2178   6.2246   6.5047   6.5153
     6.7150   7.0909

     occupation numbers 
     1.0000   1.0000   1.0000   1.0000   1.0000   1.0000   1.0000   1.0000
     1.0000   1.0000   1.0000   1.0000   1.0000   1.0000   1.0000   1.0000
     1.0000   1.0000   1.0000   1.0000   1.0000   1.0000   1.0000   1.0000
     1.0000   1.0000   1.0000   1.0000   1.0000   1.0000   1.0000   1.0000
     1.0000   1.0000

          k =-0.0000 0.0000 0.3952 (  5611 PWs)   bands (ev):

   -46.8607 -46.8529 -34.6471 -34.6456 -23.1798 -23.1798 -23.1026 -23.0996
   -23.0996 -23.0055  -9.3309  -8.7609  -8.7609  -8.5311  -8.1857  -8.1857
     3.1170   3.1170   3.3924   3.7382   3.7382   4.3254   4.3332   4.3332
     4.3916   5.3287   5.3287   5.6549   6.3042   6.7027   6.7027   6.7291
     7.1273   7.1273

     occupation numbers 
     1.0000   1.0000   1.0000   1.0000   1.0000   1.0000   1.0000   1.0000
     1.0000   1.0000   1.0000   1.0000   1.0000   1.0000   1.0000   1.0000
     1.0000   1.0000   1.0000   1.0000   1.0000   1.0000   1.0000   1.0000
     1.0000   1.0000   1.0000   1.0000   1.0000   1.0000   1.0000   1.0000
     1.0000   1.0000

          k =-0.0000 1.0343 0.0659 (  5602 PWs)   bands (ev):

   -46.8590 -46.8545 -34.6468 -34.6459 -23.2048 -23.1446 -23.1361 -23.1110
   -23.0682 -23.0048  -9.2295  -8.7620  -8.6792  -8.5379  -8.4334  -8.1124
     2.9091   3.2932   3.5231   3.7839   3.7941   4.0817   4.2866   4.6023
     4.7435   4.7513   5.3917   5.8896   6.2875   6.3351   6.7489   6.8859
     6.9475   6.9995

     occupation numbers 
     1.0000   1.0000   1.0000   1.0000   1.0000   1.0000   1.0000   1.0000
     1.0000   1.0000   1.0000   1.0000   1.0000   1.0000   1.0000   1.0000
     1.0000   1.0000   1.0000   1.0000   1.0000   1.0000   1.0000   1.0000
     1.0000   1.0000   1.0000   1.0000   1.0000   1.0000   1.0000   1.0000
     1.0000   1.0000

          k =-0.0000 0.8275 0.1317 (  5618 PWs)   bands (ev):

   -46.8568 -46.8568 -34.6464 -34.6464 -23.2201 -23.1881 -23.1498 -23.0932
   -23.0222 -22.9978  -9.1376  -9.0438  -8.7049  -8.4071  -8.3007  -8.1049
     2.6627   3.0907   3.1586   3.6199   3.9233   3.9432   4.6595   4.7592
     5.1500   5.2741   5.7571   5.7590   6.0441   6.3573   6.5848   6.6289
     6.7908   7.0775

     occupation numbers 
     1.0000   1.0000   1.0000   1.0000   1.0000   1.0000   1.0000   1.0000
     1.0000   1.0000   1.0000   1.0000   1.0000   1.0000   1.0000   1.0000
     1.0000   1.0000   1.0000   1.0000   1.0000   1.0000   1.0000   1.0000
     1.0000   1.0000   1.0000   1.0000   1.0000   1.0000   1.0000   1.0000
     1.0000   1.0000

          k = 0.8958 0.5172-0.2634 (  5612 PWs)   bands (ev):

   -46.8581 -46.8555 -34.6466 -34.6461 -23.1852 -23.1757 -23.1510 -23.0951
   -23.0416 -23.0211  -9.1309  -8.9218  -8.7111  -8.3796  -8.3624  -8.2530
     3.1839   3.2256   3.2970   3.8088   3.9037   4.0288   4.1988   4.5011
     4.8677   5.0460   5.3796   5.5434   6.3588   6.4437   6.6295   6.7975
     6.8391   7.0626

     occupation numbers 
     1.0000   1.0000   1.0000   1.0000   1.0000   1.0000   1.0000   1.0000
     1.0000   1.0000   1.0000   1.0000   1.0000   1.0000   1.0000   1.0000
     1.0000   1.0000   1.0000   1.0000   1.0000   1.0000   1.0000   1.0000
     1.0000   1.0000   1.0000   1.0000   1.0000   1.0000   1.0000   1.0000
     1.0000   1.0000

          k = 0.8958 0.3103-0.1976 (  5616 PWs)   bands (ev):

   -46.8568 -46.8568 -34.6464 -34.6464 -23.2080 -23.2080 -23.1191 -23.1191
   -23.0081 -23.0081  -9.1036  -9.1036  -8.5801  -8.5801  -8.1691  -8.1691
     2.8499   2.8499   3.3721   3.3721   4.2083   4.2083   4.4544   4.4544
     5.2200   5.2200   5.7622   5.7622   6.1853   6.1853   6.5707   6.5707
     6.9502   6.9502

     occupation numbers 
     1.0000   1.0000   1.0000   1.0000   1.0000   1.0000   1.0000   1.0000
     1.0000   1.0000   1.0000   1.0000   1.0000   1.0000   1.0000   1.0000
     1.0000   1.0000   1.0000   1.0000   1.0000   1.0000   1.0000   1.0000
     1.0000   1.0000   1.0000   1.0000   1.0000   1.0000   1.0000   1.0000
     1.0000   1.0000

          k = 0.0000 0.0000-0.5928 (  5578 PWs)   bands (ev):

   -46.8568 -46.8568 -34.6463 -34.6463 -23.1401 -23.1401 -23.1401 -23.1401
   -23.0549 -23.0549  -8.9421  -8.9421  -8.4812  -8.4812  -8.4812  -8.4812
     3.6591   3.6591   3.6591   3.6591   3.8699   3.8699   4.5084   4.5084
     4.5084   4.5084   4.9268   4.9268   6.5675   6.5675   6.9173   6.9173
     6.9173   6.9173

     occupation numbers 
     1.0000   1.0000   1.0000   1.0000   1.0000   1.0000   1.0000   1.0000
     1.0000   1.0000   1.0000   1.0000   1.0000   1.0000   1.0000   1.0000
     1.0000   1.0000   1.0000   1.0000   1.0000   1.0000   1.0000   1.0000
     1.0000   1.0000   1.0000   1.0000   1.0000   1.0000   1.0000   1.0000
     1.0000   1.0000

     highest occupied level (ev):     7.2211

!    total energy              =    -936.83921234 Ry
     estimated scf accuracy    <          5.0E-13 Ry

     The total energy is the sum of the following terms:
     one-electron contribution =    -140.48767276 Ry
     hartree contribution      =     104.88883557 Ry
     xc contribution           =    -108.25394037 Ry
     ewald contribution        =    -329.53141090 Ry
     one-center paw contrib.   =    -463.45502387 Ry
      -> PAW hartree energy AE =     293.75824816 Ry
      -> PAW hartree energy PS =    -292.23753313 Ry
      -> PAW xc energy AE      =    -560.73026746 Ry
      -> PAW xc energy PS      =      95.75452856 Ry
      -> total E_H with PAW    =     106.40955060 Ry
      -> total E_XC with PAW   =    -573.22967928 Ry

     convergence has been achieved in  29 iterations

     Forces acting on atoms (cartesian axes, Ry/au):

     atom    1 type  1   force =    -0.00000000    0.00000000    0.00082817
     atom    2 type  1   force =     0.00000000   -0.00000000    0.00082817
     atom    3 type  2   force =     0.00224942    0.00086102   -0.00169769
     atom    4 type  2   force =    -0.00187038    0.00151755   -0.00169769
     atom    5 type  2   force =    -0.00037904   -0.00237857   -0.00169769
     atom    6 type  2   force =     0.00187038    0.00151755   -0.00169769
     atom    7 type  2   force =    -0.00224942    0.00086102   -0.00169769
     atom    8 type  2   force =     0.00037904   -0.00237857   -0.00169769
     atom    9 type  3   force =     0.00000000   -0.00000000    0.00426491
     atom   10 type  3   force =     0.00000000   -0.00000000    0.00426491
     The non-local contrib.  to forces
     atom    1 type  1   force =     0.00000000    0.00000000    0.01300742
     atom    2 type  1   force =     0.00000000   -0.00000000    0.01300742
     atom    3 type  2   force =     0.32524125   -0.17083075   -0.04784129
     atom    4 type  2   force =    -0.01467686    0.36708256   -0.04784129
     atom    5 type  2   force =    -0.31056440   -0.19625181   -0.04784129
     atom    6 type  2   force =     0.01467686    0.36708256   -0.04784129
     atom    7 type  2   force =    -0.32524125   -0.17083075   -0.04784129
     atom    8 type  2   force =     0.31056440   -0.19625181   -0.04784129
     atom    9 type  3   force =    -0.00000000   -0.00000000   -0.01253100
     atom   10 type  3   force =    -0.00000000   -0.00000000   -0.01253100
     The ionic contribution  to forces
     atom    1 type  1   force =     0.00000000   -0.00000000   -1.04866155
     atom    2 type  1   force =    -0.00000000    0.00000000   -1.04866155
     atom    3 type  2   force =    -3.67696908    2.68332935    0.41923003
     atom    4 type  2   force =    -0.48534684   -4.52601331    0.41923003
     atom    5 type  2   force =     4.16231592    1.84268396    0.41923003
     atom    6 type  2   force =     0.48534684   -4.52601331    0.41923003
     atom    7 type  2   force =     3.67696908    2.68332935    0.41923003
     atom    8 type  2   force =    -4.16231592    1.84268396    0.41923003
     atom    9 type  3   force =     0.00000000   -0.00000000   -0.20902853
     atom   10 type  3   force =     0.00000000    0.00000000   -0.20902853
     The local contribution  to forces
     atom    1 type  1   force =     0.00000000   -0.00000000    1.03648232
     atom    2 type  1   force =     0.00000000    0.00000000    1.03648232
     atom    3 type  2   force =     3.35526210   -2.51308477   -0.37299831
     atom    4 type  2   force =     0.49876420    4.16228460   -0.37299831
     atom    5 type  2   force =    -3.85402630   -1.64919983   -0.37299831
     atom    6 type  2   force =    -0.49876420    4.16228460   -0.37299831
     atom    7 type  2   force =    -3.35526210   -2.51308477   -0.37299831
     atom    8 type  2   force =     3.85402630   -1.64919983   -0.37299831
     atom    9 type  3   force =     0.00000000    0.00000000    0.23101402
     atom   10 type  3   force =     0.00000000    0.00000000    0.23101403
     The core correction contribution to forces
     atom    1 type  1   force =     0.00000000    0.00000000    0.00000000
     atom    2 type  1   force =     0.00000000    0.00000000    0.00000000
     atom    3 type  2   force =    -0.00128457    0.00144709   -0.00008810
     atom    4 type  2   force =    -0.00061093   -0.00183601   -0.00008810
     atom    5 type  2   force =     0.00189550    0.00038893   -0.00008810
     atom    6 type  2   force =     0.00061093   -0.00183601   -0.00008810
     atom    7 type  2   force =     0.00128457    0.00144709   -0.00008810
     atom    8 type  2   force =    -0.00189550    0.00038893   -0.00008810
     atom    9 type  3   force =     0.00000000    0.00000000   -0.00518950
     atom   10 type  3   force =     0.00000000   -0.00000000   -0.00518950
     The Hubbard contrib.    to forces
     atom    1 type  1   force =     0.00000000    0.00000000    0.00000000
     atom    2 type  1   force =     0.00000000    0.00000000    0.00000000
     atom    3 type  2   force =     0.00000000    0.00000000    0.00000000
     atom    4 type  2   force =     0.00000000    0.00000000    0.00000000
     atom    5 type  2   force =     0.00000000    0.00000000    0.00000000
     atom    6 type  2   force =     0.00000000    0.00000000    0.00000000
     atom    7 type  2   force =     0.00000000    0.00000000    0.00000000
     atom    8 type  2   force =     0.00000000    0.00000000    0.00000000
     atom    9 type  3   force =     0.00000000    0.00000000    0.00000000
     atom   10 type  3   force =     0.00000000    0.00000000    0.00000000
     The SCF correction term to forces
     atom    1 type  1   force =     0.00000000   -0.00000000   -0.00000001
     atom    2 type  1   force =    -0.00000000   -0.00000000   -0.00000001
     atom    3 type  2   force =    -0.00000028    0.00000011   -0.00000001
     atom    4 type  2   force =     0.00000005   -0.00000030   -0.00000001
     atom    5 type  2   force =     0.00000023    0.00000019   -0.00000001
     atom    6 type  2   force =    -0.00000005   -0.00000030   -0.00000001
     atom    7 type  2   force =     0.00000028    0.00000011   -0.00000001
     atom    8 type  2   force =    -0.00000023    0.00000019   -0.00000001
     atom    9 type  3   force =    -0.00000000    0.00000000   -0.00000007
     atom   10 type  3   force =    -0.00000000    0.00000000   -0.00000007

     Total force =     0.009479     Total SCF correction =     0.000001


     Computing stress (Cartesian axis) and pressure

          total   stress  (Ry/bohr**3)                   (kbar)     P=      -14.29
  -0.00005963  -0.00000000  -0.00000000           -8.77       -0.00       -0.00
  -0.00000000  -0.00005963  -0.00000000           -0.00       -8.77       -0.00
  -0.00000000  -0.00000000  -0.00017217           -0.00       -0.00      -25.33

     kinetic stress (kbar)  26500.96      0.00      0.00
                                0.00  26500.96      0.00
                                0.00      0.00  26442.39

     local   stress (kbar) -12832.63     -0.00     -0.00
                               -0.00 -12832.63     -0.00
                               -0.00     -0.00 -11226.96

     nonloc. stress (kbar)   6906.10      0.00      0.00
                               -0.00   6906.10      0.00
                               -0.00      0.00   6946.92

     hartree stress (kbar)   7306.58      0.00     -0.00
                                0.00   7306.58      0.00
                               -0.00      0.00   6948.34

     exc-cor stress (kbar)   1072.33      0.00     -0.00
                                0.00   1072.33      0.00
                               -0.00      0.00   1069.52

     corecor stress (kbar)  -6796.31     -0.00      0.00
                               -0.00  -6796.31     -0.00
                                0.00     -0.00  -6796.92

     ewald   stress (kbar) -22165.81      0.00     -0.00
                                0.00 -22165.81      0.00
                               -0.00      0.00 -23408.61

     hubbard stress (kbar)      0.00      0.00      0.00
                                0.00      0.00      0.00
                                0.00      0.00      0.00

     DFT-D   stress (kbar)      0.00      0.00      0.00
                                0.00      0.00      0.00
                                0.00      0.00      0.00

     XDM     stress (kbar)      0.00      0.00      0.00
                                0.00      0.00      0.00
                                0.00      0.00      0.00

     dft-nl  stress (kbar)      0.00      0.00      0.00
                                0.00      0.00      0.00
                                0.00      0.00      0.00

     TS-vdW  stress (kbar)      0.00      0.00      0.00
                                0.00      0.00      0.00
                                0.00      0.00      0.00

     MDB     stress (kbar)      0.00      0.00      0.00
                                0.00      0.00      0.00
                                0.00      0.00      0.00

     3D-RISM stress (kbar)      0.00      0.00      0.00
                                0.00      0.00      0.00
                                0.00      0.00      0.00

     Message from routine punch:
     Nothing written, as per user request (disk_io='none')
 
     init_run     :      0.55s CPU      0.81s WALL (       1 calls)
     electrons    :     20.87s CPU     21.41s WALL (       1 calls)
     forces       :      0.08s CPU      0.08s WALL (       1 calls)
     stress       :      0.17s CPU      0.17s WALL (       1 calls)

     Called by init_run:
     wfcinit      :      0.18s CPU      0.31s WALL (       1 calls)
     wfcinit:atom :      0.02s CPU      0.03s WALL (      32 calls)
     wfcinit:wfcr :      0.12s CPU      0.22s WALL (      32 calls)
     potinit      :      0.09s CPU      0.12s WALL (       1 calls)
     hinit0       :      0.20s CPU      0.24s WALL (       1 calls)

     Called by electrons:
     c_bands      :     15.94s CPU     16.28s WALL (      29 calls)
     sum_band     :      2.04s CPU      2.08s WALL (      29 calls)
     v_of_rho     :      0.11s CPU      0.17s WALL (      30 calls)
     v_h          :      0.04s CPU      0.08s WALL (      30 calls)
     v_xc         :      0.08s CPU      0.09s WALL (      32 calls)
     newd         :      0.28s CPU      0.31s WALL (      30 calls)
     PAW_pot      :      2.26s CPU      2.31s WALL (      30 calls)
     mix_rho      :      0.21s CPU      0.22s WALL (      29 calls)

     Called by c_bands:
     init_us_2    :      0.64s CPU      0.65s WALL (    1952 calls)
     cegterg      :     14.54s CPU     14.85s WALL (     928 calls)

     Called by sum_band:
     sum_band:wei :      0.00s CPU      0.00s WALL (      29 calls)
     sum_band:loo :      1.56s CPU      1.58s WALL (      29 calls)
     sum_band:buf :      0.27s CPU      0.29s WALL (     928 calls)
     sum_band:ini :      0.30s CPU      0.31s WALL (     928 calls)
     sum_band:cal :      0.02s CPU      0.02s WALL (     928 calls)
     sum_band:bec :      0.35s CPU      0.35s WALL (     928 calls)
     addusdens    :      0.31s CPU      0.31s WALL (      29 calls)
                                        0.31s GPU  (      29 calls)
     addusd:skk   :      0.01s CPU      0.01s WALL (      87 calls)
                                        0.01s GPU  (      87 calls)

     Called by *egterg:
     cdiaghg      :      6.25s CPU      6.42s WALL (    5446 calls)
                                        6.37s GPU  (    5446 calls)
     cegterg:over :      0.40s CPU      0.41s WALL (    4518 calls)
     cegterg:upda :      1.43s CPU      1.44s WALL (    4518 calls)
     cegterg:last :      0.20s CPU      0.20s WALL (    3142 calls)
     h_psi        :      4.11s CPU      4.39s WALL (    5478 calls)
     s_psi        :      1.43s CPU      1.45s WALL (    5478 calls)
     g_psi        :      0.09s CPU      0.09s WALL (    4518 calls)

     Called by h_psi:
     h_psi:calbec :      0.10s CPU      0.13s WALL (    5478 calls)
     vloc_psi     :      2.65s CPU      2.93s WALL (    5478 calls)
                                        2.88s GPU  (    5478 calls)
     add_vuspsi   :      1.20s CPU      1.23s WALL (    5478 calls)

     General routines
     calbec       :      0.11s CPU      0.15s WALL (    6950 calls)
     fft          :      0.04s CPU      0.09s WALL (     413 calls)
                                        0.04s GPU  (     383 calls)
     ffts         :      0.02s CPU      0.03s WALL (      59 calls)
                                        0.00s GPU  (      29 calls)
     fftw         :      0.19s CPU      1.75s WALL (   24786 calls)
                                        1.52s GPU  (   24786 calls)
     interpolate  :      0.08s CPU      0.13s WALL (      30 calls)
 
     Parallel routines

     PAW routines
     PAW_pot      :      2.26s CPU      2.31s WALL (      30 calls)
     PAW_symme    :      0.00s CPU      0.00s WALL (      59 calls)
 
     PWSCF        :     21.99s CPU     22.83s WALL

 
   This run was terminated on:  17: 6: 0  29Nov2025            

=------------------------------------------------------------------------------=
   JOB DONE.
=------------------------------------------------------------------------------=
