
     Program PWSCF v.7.5 starts on 29Nov2025 at 17: 5:36 

     This program is part of the open-source Quantum ESPRESSO suite
     for quantum simulation of materials; please cite
         "P. Giannozzi et al., J. Phys.:Condens. Matter 21 395502 (2009);
         "P. Giannozzi et al., J. Phys.:Condens. Matter 29 465901 (2017);
         "P. Giannozzi et al., J. Chem. Phys. 152 154105 (2020);
          URL http://www.quantum-espresso.org", 
     in publications or presentations arising from this work. More details at
     http://www.quantum-espresso.org/quote

     Parallel version (MPI & OpenMP), running on       1 processor cores
     Number of MPI processes:                 1
     Threads/MPI process:                     1

     MPI processes distributed on     1 nodes
     1774736 MiB available memory on the printing compute node when the environment starts
 
     Reading input from espresso.pwi
Warning: card &CELL ignored
Warning: card &FCP ignored
Warning: card &RISM ignored

     Current dimensions of program PWSCF are:
     Max number of different atomic species (ntypx) = 10
     Max number of k-points (npk) =  40000
     Max angular momentum in pseudopotentials (lmaxx) =  4
     file O.pbesol-n-kjpaw_psl.0.1.UPF: wavefunction(s)  2P renormalized
     file Nb.pbesol-spn-kjpaw_psl.0.3.0.UPF: wavefunction(s)  4S 4P renormalized
     Message from routine setup:
     using ibrav=0 with symmetry is DISCOURAGED, use correct ibrav instead
 
     Subspace diagonalization in iterative solution of the eigenvalue problem:
     a serial algorithm will be used

 
     G-vector sticks info
     --------------------
     sticks:   dense  smooth     PW     G-vecs:    dense   smooth      PW
     Sum        2789    1675    489                93757    43609    6941
 
     Using Slab Decomposition
 


     bravais-lattice index     =            0
     lattice parameter (alat)  =      10.3182  a.u.
     unit-cell volume          =     694.4274 (a.u.)^3
     number of atoms/cell      =           10
     number of atomic types    =            3
     number of electrons       =        68.00
     number of Kohn-Sham states=           34
     kinetic-energy cutoff     =      60.0000  Ry
     charge density cutoff     =     400.0000  Ry
     scf convergence threshold =      1.0E-12
     mixing beta               =       0.7000
     number of iterations used =            8  plain     mixing
     Exchange-correlation= SLA  PW   PSX  PSC
                           (   1   4  10   8   0   0   0)

     GPU acceleration is ACTIVE.  1 visible GPUs per MPI rank


     GPU used by master process:

        Device Number: 0
        Device name: NVIDIA B200
        Compute capability : 100
        Ratio of single to double precision performance  : 16
        Memory Clock Rate (KHz): 3996000
        Memory Bus Width (bits): 7680
        Peak Memory Bandwidth (GB/s): ******

     celldm(1)=  10.318176  celldm(2)=   0.000000  celldm(3)=   0.000000
     celldm(4)=   0.000000  celldm(5)=   0.000000  celldm(6)=   0.000000

     crystal axes: (cart. coord. in units of alat)
               a(1) = (   0.465116   0.268535   0.843538 )  
               a(2) = (  -0.465116   0.268535   0.843538 )  
               a(3) = (   0.000000  -0.537070   0.843538 )  

     reciprocal axes: (cart. coord. in units 2 pi/alat)
               b(1) = (  1.075000  0.620652  0.395161 )  
               b(2) = ( -1.075000  0.620652  0.395161 )  
               b(3) = (  0.000000 -1.241303  0.395161 )  


     PseudoPot. # 1 for Li read from file:
     /home/qhossain/SSSP_1.3.0_PBEsol_efficiency/li_pbesol_v1.4.uspp.F.UPF
     MD5 check sum: aa28d9aeea6a965f2dc95ee9517b3536
     Pseudo is Ultrasoft, Zval =  3.0
     Generated by new atomic code, or converted to UPF format
     Using radial grid of  751 points,  5 beta functions with: 
                l(1) =   0
                l(2) =   0
                l(3) =   0
                l(4) =   1
                l(5) =   1
     Q(r) pseudized with 10 coefficients,  rinner =    1.150   1.150   1.150


     PseudoPot. # 2 for O  read from file:
     /home/qhossain/SSSP_1.3.0_PBEsol_efficiency/O.pbesol-n-kjpaw_psl.0.1.UPF
     MD5 check sum: 81d73d1479e654e5638b0319f0d6c2c7
     Pseudo is Projector augmented-wave + core cor, Zval =  6.0
     Generated using "atomic" code by A. Dal Corso  v.6.0 svn rev. 13079
     Shape of augmentation charge: BESSEL
     Using radial grid of 1095 points,  4 beta functions with: 
                l(1) =   0
                l(2) =   0
                l(3) =   1
                l(4) =   1
     Q(r) pseudized with 0 coefficients 


     PseudoPot. # 3 for Nb read from file:
     /home/qhossain/SSSP_1.3.0_PBEsol_efficiency/Nb.pbesol-spn-kjpaw_psl.0.3.0.UPF
     MD5 check sum: 3501bca1474143575298708b2d32ca28
     Pseudo is Projector augmented-wave + core cor, Zval = 13.0
     Generated using "atomic" code by A. Dal Corso  v.6.0 svn rev. 13079
     Shape of augmentation charge: PSQ
     Using radial grid of 1227 points,  6 beta functions with: 
                l(1) =   0
                l(2) =   0
                l(3) =   1
                l(4) =   1
                l(5) =   2
                l(6) =   2
     Q(r) pseudized with 0 coefficients 


     atomic species   valence    mass     pseudopotential
     Li                3.00     6.94000     Li( 1.00)
     O                 6.00    15.99900     O ( 1.00)
     Nb               13.00    92.90637     Nb( 1.00)

      6 Sym. Ops. (no inversion) found ( 3 have fractional translation)


                                    s                        frac. trans.

      isym =  1     identity                                     

 cryst.   s( 1) = (     1          0          0      )
                  (     0          1          0      )
                  (     0          0          1      )

 cart.    s( 1) = (  1.0000000 -0.0000000 -0.0000000 )
                  ( -0.0000000  1.0000000  0.0000000 )
                  ( -0.0000000 -0.0000000  1.0000000 )


      isym =  2     120 deg rotation - cryst. axis [0,0,1]       

 cryst.   s( 2) = (     0          1          0      )
                  (     0          0          1      )
                  (     1          0          0      )

 cart.    s( 2) = ( -0.5000000 -0.8660254 -0.0000000 )
                  (  0.8660254 -0.5000000 -0.0000000 )
                  ( -0.0000000  0.0000000  1.0000000 )


      isym =  3     120 deg rotation - cryst. axis [0,0,-1]      

 cryst.   s( 3) = (     0          0          1      )
                  (     1          0          0      )
                  (     0          1          0      )

 cart.    s( 3) = ( -0.5000000  0.8660254  0.0000000 )
                  ( -0.8660254 -0.5000000 -0.0000000 )
                  (  0.0000000 -0.0000000  1.0000000 )


      isym =  4     inv. 180 deg rotation - cart. axis [1,0,0]   

 cryst.   s( 4) = (     0          1          0      )    f =(  0.5000000 )
                  (     1          0          0      )       (  0.5000000 )
                  (     0          0          1      )       (  0.5000000 )

 cart.    s( 4) = ( -1.0000000 -0.0000000 -0.0000000 )    f =(  0.0000000 )
                  (  0.0000000  1.0000000  0.0000000 )       ( -0.0000000 )
                  (  0.0000000 -0.0000000  1.0000000 )       (  1.2653066 )


      isym =  5     inv. 180 deg rotation - cryst. axis [0,1,0]  

 cryst.   s( 5) = (     1          0          0      )    f =(  0.5000000 )
                  (     0          0          1      )       (  0.5000000 )
                  (     0          1          0      )       (  0.5000000 )

 cart.    s( 5) = (  0.5000000  0.8660254  0.0000000 )    f =(  0.0000000 )
                  (  0.8660254 -0.5000000 -0.0000000 )       ( -0.0000000 )
                  ( -0.0000000 -0.0000000  1.0000000 )       (  1.2653066 )


      isym =  6     inv. 180 deg rotation - cryst. axis [1,1,0]  

 cryst.   s( 6) = (     0          0          1      )    f =(  0.5000000 )
                  (     0          1          0      )       (  0.5000000 )
                  (     1          0          0      )       (  0.5000000 )

 cart.    s( 6) = (  0.5000000 -0.8660254 -0.0000000 )    f =( -0.0000000 )
                  ( -0.8660254 -0.5000000 -0.0000000 )       ( -0.0000000 )
                  (  0.0000000  0.0000000  1.0000000 )       (  1.2653066 )


   Cartesian axes

     site n.     atom                  positions (alat units)
         1        Li     tau(   1) = (   0.0000000  -0.0000000   1.9825556  )
         2        Li     tau(   2) = (  -0.0000000  -0.0000000   0.7172490  )
         3        O      tau(   3) = (  -0.2981307  -0.0380232   1.4325902  )
         4        O      tau(   4) = (   0.1819944  -0.2391771   1.4325902  )
         5        O      tau(   5) = (   0.1161363   0.2772003   1.4325902  )
         6        O      tau(   6) = (   0.2831219   0.0293578   1.0108214  )
         7        O      tau(   7) = (  -0.1669856   0.2305118   1.0108214  )
         8        O      tau(   8) = (  -0.1161363  -0.2598696   1.0108214  )
         9        Nb     tau(   9) = (  -0.0000000  -0.0000000   1.2680298  )
        10        Nb     tau(  10) = (  -0.0000000  -0.0000000   0.0027233  )

   Crystallographic axes

     site n.     atom                  positions (cryst. coord.)
         1        Li     tau(   1) = (  0.7834289  0.7834289  0.7834289  )
         2        Li     tau(   2) = (  0.2834289  0.2834289  0.2834289  )
         3        O      tau(   3) = (  0.2220144  0.8629954  0.6133023  )
         4        O      tau(   4) = (  0.6133023  0.2220144  0.8629954  )
         5        O      tau(   5) = (  0.8629954  0.6133023  0.2220144  )
         6        O      tau(   6) = (  0.7220144  0.1133023  0.3629954  )
         7        O      tau(   7) = (  0.3629954  0.7220144  0.1133023  )
         8        O      tau(   8) = (  0.1133023  0.3629954  0.7220144  )
         9        Nb     tau(   9) = (  0.5010761  0.5010761  0.5010761  )
        10        Nb     tau(  10) = (  0.0010761  0.0010761  0.0010761  )

     number of k points=    32
                       cart. coord. in units 2pi/alat
        k(    1) = (   0.0000000   0.0000000   0.0000000), wk =   0.0092593
        k(    2) = (   0.0000000  -0.2068839   0.0658602), wk =   0.0555556
        k(    3) = (   0.0000000  -0.4137677   0.1317204), wk =   0.0555556
        k(    4) = (  -0.0000000   0.6206516  -0.1975806), wk =   0.0277778
        k(    5) = (  -0.1791667  -0.1034419   0.1317204), wk =   0.0555556
        k(    6) = (  -0.1791667  -0.3103258   0.1975806), wk =   0.1111111
        k(    7) = (  -0.1791667   0.7240935  -0.1317204), wk =   0.1111111
        k(    8) = (  -0.1791667   0.5172097  -0.0658602), wk =   0.1111111
        k(    9) = (  -0.1791667   0.3103258   0.0000000), wk =   0.0555556
        k(   10) = (  -0.3583334  -0.2068839   0.2634408), wk =   0.0555556
        k(   11) = (  -0.3583334   0.8275355  -0.0658602), wk =   0.1111111
        k(   12) = (  -0.3583334   0.6206516   0.0000000), wk =   0.0555556
        k(   13) = (   0.5375001   0.3103258  -0.3951612), wk =   0.0277778
        k(   14) = (   0.0000000   0.0000000   0.1975806), wk =   0.0185185
        k(   15) = (   0.0000000  -0.2068839   0.2634408), wk =   0.0555556
        k(   16) = (  -0.0000000   0.8275355  -0.0658602), wk =   0.0555556
        k(   17) = (   0.0000000   0.6206516   0.0000000), wk =   0.0555556
        k(   18) = (   0.0000000   0.4137677   0.0658602), wk =   0.0555556
        k(   19) = (  -0.1791667  -0.1034419   0.3293010), wk =   0.0555556
        k(   20) = (  -0.1791667   0.9309774   0.0000000), wk =   0.1111111
        k(   21) = (  -0.1791667   0.7240935   0.0658602), wk =   0.1111111
        k(   22) = (  -0.1791667   0.5172097   0.1317204), wk =   0.1111111
        k(   23) = (   0.7166667   0.4137677  -0.3293010), wk =   0.0555556
        k(   24) = (   0.7166667   0.2068839  -0.2634408), wk =   0.1111111
        k(   25) = (   0.7166667  -0.0000000  -0.1975806), wk =   0.0555556
        k(   26) = (   0.5375001   0.3103258  -0.1975806), wk =   0.0555556
        k(   27) = (   0.0000000   0.0000000   0.3951612), wk =   0.0185185
        k(   28) = (   0.0000000   1.0344193   0.0658602), wk =   0.0555556
        k(   29) = (   0.0000000   0.8275355   0.1317204), wk =   0.0555556
        k(   30) = (   0.8958334   0.5172097  -0.2634408), wk =   0.0555556
        k(   31) = (   0.8958334   0.3103258  -0.1975806), wk =   0.0555556
        k(   32) = (  -0.0000000   0.0000000  -0.5927417), wk =   0.0092593

                       cryst. coord.
        k(    1) = (   0.0000000   0.0000000   0.0000000), wk =   0.0092593
        k(    2) = (  -0.0000000  -0.0000000   0.1666667), wk =   0.0555556
        k(    3) = (  -0.0000000  -0.0000000   0.3333333), wk =   0.0555556
        k(    4) = (   0.0000000   0.0000000  -0.5000000), wk =   0.0277778
        k(    5) = (  -0.0000000   0.1666667   0.1666667), wk =   0.0555556
        k(    6) = (   0.0000000   0.1666667   0.3333333), wk =   0.1111111
        k(    7) = (   0.0000000   0.1666667  -0.5000000), wk =   0.1111111
        k(    8) = (  -0.0000000   0.1666667  -0.3333333), wk =   0.1111111
        k(    9) = (  -0.0000000   0.1666667  -0.1666667), wk =   0.0555556
        k(   10) = (  -0.0000000   0.3333333   0.3333333), wk =   0.0555556
        k(   11) = (  -0.0000000   0.3333333  -0.5000000), wk =   0.1111111
        k(   12) = (  -0.0000000   0.3333333  -0.3333333), wk =   0.0555556
        k(   13) = (  -0.0000000  -0.5000000  -0.5000000), wk =   0.0277778
        k(   14) = (   0.1666667   0.1666667   0.1666667), wk =   0.0185185
        k(   15) = (   0.1666667   0.1666667   0.3333333), wk =   0.0555556
        k(   16) = (   0.1666667   0.1666667  -0.5000000), wk =   0.0555556
        k(   17) = (   0.1666667   0.1666667  -0.3333333), wk =   0.0555556
        k(   18) = (   0.1666667   0.1666667  -0.1666667), wk =   0.0555556
        k(   19) = (   0.1666667   0.3333333   0.3333333), wk =   0.0555556
        k(   20) = (   0.1666667   0.3333333  -0.5000000), wk =   0.1111111
        k(   21) = (   0.1666667   0.3333333  -0.3333333), wk =   0.1111111
        k(   22) = (   0.1666667   0.3333333  -0.1666667), wk =   0.1111111
        k(   23) = (   0.1666667  -0.5000000  -0.5000000), wk =   0.0555556
        k(   24) = (   0.1666667  -0.5000000  -0.3333333), wk =   0.1111111
        k(   25) = (   0.1666667  -0.5000000  -0.1666667), wk =   0.0555556
        k(   26) = (   0.1666667  -0.3333333  -0.3333333), wk =   0.0555556
        k(   27) = (   0.3333333   0.3333333   0.3333333), wk =   0.0185185
        k(   28) = (   0.3333333   0.3333333  -0.5000000), wk =   0.0555556
        k(   29) = (   0.3333333   0.3333333  -0.3333333), wk =   0.0555556
        k(   30) = (   0.3333333  -0.5000000  -0.5000000), wk =   0.0555556
        k(   31) = (   0.3333333  -0.5000000  -0.3333333), wk =   0.0555556
        k(   32) = (  -0.5000000  -0.5000000  -0.5000000), wk =   0.0092593

     Dense  grid:    93757 G-vectors     FFT dimensions: (  72,  72,  72)

     Smooth grid:    43609 G-vectors     FFT dimensions: (  54,  54,  54)

     Dynamical RAM for                 wfc:       2.83 MB

     Dynamical RAM for     wfc (w. buffer):      93.31 MB

     Dynamical RAM for           str. fact:       4.29 MB

     Dynamical RAM for           local pot:       0.00 MB

     Dynamical RAM for          nlocal pot:       8.48 MB

     Dynamical RAM for                qrad:       4.82 MB

     Dynamical RAM for          rho,v,vnew:      12.83 MB

     Dynamical RAM for               rhoin:       4.28 MB

     Dynamical RAM for            rho*nmix:      22.89 MB

     Dynamical RAM for           G-vectors:       5.70 MB

     Dynamical RAM for          h,s,v(r/c):       0.21 MB

     Dynamical RAM for          <psi|beta>:       0.05 MB

     Dynamical RAM for                 psi:       5.65 MB

     Dynamical RAM for                hpsi:       5.65 MB

     Dynamical RAM for                spsi:       5.65 MB

     Dynamical RAM for      wfcinit/wfcrot:       5.68 MB

     Dynamical RAM for           addusdens:     274.68 MB

     Dynamical RAM for          addusforce:     289.72 MB

     Dynamical RAM for         addusstress:     287.55 MB

     Estimated static dynamical RAM per process >     153.67 MB

     Estimated max dynamical RAM per process >     466.28 MB

     Check: negative core charge=   -0.000005

     Initial potential from superposition of free atoms

     starting charge      67.0945, renormalised to      68.0000
     Starting wfcs are   54 randomized atomic wfcs
     Checking if some PAW data can be deallocated... 

     total cpu time spent up to now is        1.3 secs

     per-process dynamical memory:   555.7 Mb

     Self-consistent Calculation
[tb_dev] Currently allocated     1.86E+00 Mbytes, locked:    0 /   3
[tb_pin] Currently allocated     0.00E+00 Mbytes, locked:    0 /   0

     iteration #  1     ecut=    60.00 Ry     beta= 0.70
     Davidson diagonalization with overlap

---- Real-time Memory Report at c_bands before calling an iterative solver
           984 MiB given to the printing process from OS
           542 MiB allocation reported by mallinfo(arena+hblkhd)
       1775753 MiB available memory on the node where the printing process lives
     GPU memory used/free/total (MiB): 2269 / 180372 / 182642
------------------
     ethr =  1.00E-02,  avg # of iterations =  1.3

     total cpu time spent up to now is        1.7 secs

     total energy              =    -934.53576998 Ry
     estimated scf accuracy    <       4.30099648 Ry
[tb_dev] Currently allocated     0.00E+00 Mbytes, locked:    0 /   0
[tb_pin] Currently allocated     0.00E+00 Mbytes, locked:    0 /   0

     iteration #  2     ecut=    60.00 Ry     beta= 0.70
     Davidson diagonalization with overlap

---- Real-time Memory Report at c_bands before calling an iterative solver
          1034 MiB given to the printing process from OS
           616 MiB allocation reported by mallinfo(arena+hblkhd)
       1774809 MiB available memory on the node where the printing process lives
     GPU memory used/free/total (MiB): 2269 / 180372 / 182642
------------------
     ethr =  6.32E-03,  avg # of iterations =  8.1

     total cpu time spent up to now is        2.8 secs

     total energy              =    -934.25821519 Ry
     estimated scf accuracy    <      13.46804901 Ry
[tb_dev] Currently allocated     0.00E+00 Mbytes, locked:    0 /   0
[tb_pin] Currently allocated     0.00E+00 Mbytes, locked:    0 /   0

     iteration #  3     ecut=    60.00 Ry     beta= 0.70
     Davidson diagonalization with overlap

---- Real-time Memory Report at c_bands before calling an iterative solver
          1041 MiB given to the printing process from OS
           621 MiB allocation reported by mallinfo(arena+hblkhd)
       1775895 MiB available memory on the node where the printing process lives
     GPU memory used/free/total (MiB): 2271 / 180370 / 182642
------------------
     ethr =  6.32E-03,  avg # of iterations =  5.3

     total cpu time spent up to now is        3.6 secs

     total energy              =    -936.68505542 Ry
     estimated scf accuracy    <       0.05531367 Ry
[tb_dev] Currently allocated     0.00E+00 Mbytes, locked:    0 /   0
[tb_pin] Currently allocated     0.00E+00 Mbytes, locked:    0 /   0

     iteration #  4     ecut=    60.00 Ry     beta= 0.70
     Davidson diagonalization with overlap

---- Real-time Memory Report at c_bands before calling an iterative solver
          1043 MiB given to the printing process from OS
           622 MiB allocation reported by mallinfo(arena+hblkhd)
       1775470 MiB available memory on the node where the printing process lives
     GPU memory used/free/total (MiB): 2271 / 180370 / 182642
------------------
     ethr =  8.13E-05,  avg # of iterations =  9.3

     total cpu time spent up to now is        4.8 secs

     total energy              =    -936.71813120 Ry
     estimated scf accuracy    <       0.28187322 Ry
[tb_dev] Currently allocated     0.00E+00 Mbytes, locked:    0 /   0
[tb_pin] Currently allocated     0.00E+00 Mbytes, locked:    0 /   0

     iteration #  5     ecut=    60.00 Ry     beta= 0.70
     Davidson diagonalization with overlap

---- Real-time Memory Report at c_bands before calling an iterative solver
          1045 MiB given to the printing process from OS
           625 MiB allocation reported by mallinfo(arena+hblkhd)
       1775706 MiB available memory on the node where the printing process lives
     GPU memory used/free/total (MiB): 2271 / 180370 / 182642
------------------
     ethr =  8.13E-05,  avg # of iterations =  7.4

     total cpu time spent up to now is        5.8 secs

     total energy              =    -936.81682135 Ry
     estimated scf accuracy    <       0.22926163 Ry
[tb_dev] Currently allocated     0.00E+00 Mbytes, locked:    0 /   0
[tb_pin] Currently allocated     0.00E+00 Mbytes, locked:    0 /   0

     iteration #  6     ecut=    60.00 Ry     beta= 0.70
     Davidson diagonalization with overlap

---- Real-time Memory Report at c_bands before calling an iterative solver
          1048 MiB given to the printing process from OS
           627 MiB allocation reported by mallinfo(arena+hblkhd)
       1774962 MiB available memory on the node where the printing process lives
     GPU memory used/free/total (MiB): 2271 / 180370 / 182642
------------------
     ethr =  8.13E-05,  avg # of iterations =  3.9

     total cpu time spent up to now is        6.5 secs

     total energy              =    -936.81818646 Ry
     estimated scf accuracy    <       0.03801251 Ry
[tb_dev] Currently allocated     0.00E+00 Mbytes, locked:    0 /   0
[tb_pin] Currently allocated     0.00E+00 Mbytes, locked:    0 /   0

     iteration #  7     ecut=    60.00 Ry     beta= 0.70
     Davidson diagonalization with overlap

---- Real-time Memory Report at c_bands before calling an iterative solver
          1049 MiB given to the printing process from OS
           627 MiB allocation reported by mallinfo(arena+hblkhd)
       1775782 MiB available memory on the node where the printing process lives
     GPU memory used/free/total (MiB): 2271 / 180370 / 182642
------------------
     ethr =  5.59E-05,  avg # of iterations =  5.1

     total cpu time spent up to now is        7.3 secs

     total energy              =    -936.83686812 Ry
     estimated scf accuracy    <       0.00609432 Ry
[tb_dev] Currently allocated     0.00E+00 Mbytes, locked:    0 /   0
[tb_pin] Currently allocated     0.00E+00 Mbytes, locked:    0 /   0

     iteration #  8     ecut=    60.00 Ry     beta= 0.70
     Davidson diagonalization with overlap

---- Real-time Memory Report at c_bands before calling an iterative solver
          1051 MiB given to the printing process from OS
           630 MiB allocation reported by mallinfo(arena+hblkhd)
       1775464 MiB available memory on the node where the printing process lives
     GPU memory used/free/total (MiB): 2271 / 180370 / 182642
------------------
     ethr =  8.96E-06,  avg # of iterations =  2.3

     total cpu time spent up to now is        7.8 secs

     total energy              =    -936.83544630 Ry
     estimated scf accuracy    <       0.00496039 Ry
[tb_dev] Currently allocated     0.00E+00 Mbytes, locked:    0 /   0
[tb_pin] Currently allocated     0.00E+00 Mbytes, locked:    0 /   0

     iteration #  9     ecut=    60.00 Ry     beta= 0.70
     Davidson diagonalization with overlap

---- Real-time Memory Report at c_bands before calling an iterative solver
          1052 MiB given to the printing process from OS
           620 MiB allocation reported by mallinfo(arena+hblkhd)
       1774590 MiB available memory on the node where the printing process lives
     GPU memory used/free/total (MiB): 2271 / 180370 / 182642
------------------
     ethr =  7.29E-06,  avg # of iterations =  2.2

     total cpu time spent up to now is        8.3 secs

     total energy              =    -936.83545128 Ry
     estimated scf accuracy    <       0.00104615 Ry
[tb_dev] Currently allocated     0.00E+00 Mbytes, locked:    0 /   0
[tb_pin] Currently allocated     0.00E+00 Mbytes, locked:    0 /   0

     iteration # 10     ecut=    60.00 Ry     beta= 0.70
     Davidson diagonalization with overlap

---- Real-time Memory Report at c_bands before calling an iterative solver
          1054 MiB given to the printing process from OS
           633 MiB allocation reported by mallinfo(arena+hblkhd)
       1775881 MiB available memory on the node where the printing process lives
     GPU memory used/free/total (MiB): 2271 / 180370 / 182642
------------------
     ethr =  1.54E-06,  avg # of iterations =  4.9

     total cpu time spent up to now is        9.0 secs

     total energy              =    -936.83592307 Ry
     estimated scf accuracy    <       0.00005762 Ry
[tb_dev] Currently allocated     0.00E+00 Mbytes, locked:    0 /   0
[tb_pin] Currently allocated     0.00E+00 Mbytes, locked:    0 /   0

     iteration # 11     ecut=    60.00 Ry     beta= 0.70
     Davidson diagonalization with overlap

---- Real-time Memory Report at c_bands before calling an iterative solver
          1055 MiB given to the printing process from OS
           633 MiB allocation reported by mallinfo(arena+hblkhd)
       1775903 MiB available memory on the node where the printing process lives
     GPU memory used/free/total (MiB): 2271 / 180370 / 182642
------------------
     ethr =  8.47E-08,  avg # of iterations =  4.6

     total cpu time spent up to now is        9.7 secs

     total energy              =    -936.83593574 Ry
     estimated scf accuracy    <       0.00001142 Ry
[tb_dev] Currently allocated     0.00E+00 Mbytes, locked:    0 /   0
[tb_pin] Currently allocated     0.00E+00 Mbytes, locked:    0 /   0

     iteration # 12     ecut=    60.00 Ry     beta= 0.70
     Davidson diagonalization with overlap

---- Real-time Memory Report at c_bands before calling an iterative solver
          1055 MiB given to the printing process from OS
           633 MiB allocation reported by mallinfo(arena+hblkhd)
       1775127 MiB available memory on the node where the printing process lives
     GPU memory used/free/total (MiB): 2271 / 180370 / 182642
------------------
     ethr =  1.68E-08,  avg # of iterations =  4.7

     total cpu time spent up to now is       10.4 secs

     total energy              =    -936.83593738 Ry
     estimated scf accuracy    <       0.00000291 Ry
[tb_dev] Currently allocated     0.00E+00 Mbytes, locked:    0 /   0
[tb_pin] Currently allocated     0.00E+00 Mbytes, locked:    0 /   0

     iteration # 13     ecut=    60.00 Ry     beta= 0.70
     Davidson diagonalization with overlap

---- Real-time Memory Report at c_bands before calling an iterative solver
          1055 MiB given to the printing process from OS
           633 MiB allocation reported by mallinfo(arena+hblkhd)
       1776249 MiB available memory on the node where the printing process lives
     GPU memory used/free/total (MiB): 2271 / 180370 / 182642
------------------
     ethr =  4.28E-09,  avg # of iterations =  4.5

     total cpu time spent up to now is       11.1 secs

     total energy              =    -936.83593781 Ry
     estimated scf accuracy    <       0.00000039 Ry
[tb_dev] Currently allocated     0.00E+00 Mbytes, locked:    0 /   0
[tb_pin] Currently allocated     0.00E+00 Mbytes, locked:    0 /   0

     iteration # 14     ecut=    60.00 Ry     beta= 0.70
     Davidson diagonalization with overlap

---- Real-time Memory Report at c_bands before calling an iterative solver
          1055 MiB given to the printing process from OS
           633 MiB allocation reported by mallinfo(arena+hblkhd)
       1776199 MiB available memory on the node where the printing process lives
     GPU memory used/free/total (MiB): 2271 / 180370 / 182642
------------------
     ethr =  5.74E-10,  avg # of iterations =  6.1

     total cpu time spent up to now is       11.9 secs

     total energy              =    -936.83593810 Ry
     estimated scf accuracy    <       0.00000024 Ry
[tb_dev] Currently allocated     0.00E+00 Mbytes, locked:    0 /   0
[tb_pin] Currently allocated     0.00E+00 Mbytes, locked:    0 /   0

     iteration # 15     ecut=    60.00 Ry     beta= 0.70
     Davidson diagonalization with overlap

---- Real-time Memory Report at c_bands before calling an iterative solver
          1055 MiB given to the printing process from OS
           633 MiB allocation reported by mallinfo(arena+hblkhd)
       1774801 MiB available memory on the node where the printing process lives
     GPU memory used/free/total (MiB): 2271 / 180370 / 182642
------------------
     ethr =  3.50E-10,  avg # of iterations =  1.0

     total cpu time spent up to now is       12.3 secs

     total energy              =    -936.83593808 Ry
     estimated scf accuracy    <       0.00000012 Ry
[tb_dev] Currently allocated     0.00E+00 Mbytes, locked:    0 /   0
[tb_pin] Currently allocated     0.00E+00 Mbytes, locked:    0 /   0

     iteration # 16     ecut=    60.00 Ry     beta= 0.70
     Davidson diagonalization with overlap

---- Real-time Memory Report at c_bands before calling an iterative solver
          1055 MiB given to the printing process from OS
           633 MiB allocation reported by mallinfo(arena+hblkhd)
       1776007 MiB available memory on the node where the printing process lives
     GPU memory used/free/total (MiB): 2271 / 180370 / 182642
------------------
     ethr =  1.71E-10,  avg # of iterations =  2.9

     total cpu time spent up to now is       12.8 secs

     total energy              =    -936.83593808 Ry
     estimated scf accuracy    <       0.00000003 Ry
[tb_dev] Currently allocated     0.00E+00 Mbytes, locked:    0 /   0
[tb_pin] Currently allocated     0.00E+00 Mbytes, locked:    0 /   0

     iteration # 17     ecut=    60.00 Ry     beta= 0.70
     Davidson diagonalization with overlap

---- Real-time Memory Report at c_bands before calling an iterative solver
          1055 MiB given to the printing process from OS
           622 MiB allocation reported by mallinfo(arena+hblkhd)
       1775855 MiB available memory on the node where the printing process lives
     GPU memory used/free/total (MiB): 2271 / 180370 / 182642
------------------
     ethr =  4.33E-11,  avg # of iterations =  5.0

     total cpu time spent up to now is       13.6 secs

     total energy              =    -936.83593810 Ry
     estimated scf accuracy    <          1.7E-09 Ry
[tb_dev] Currently allocated     0.00E+00 Mbytes, locked:    0 /   0
[tb_pin] Currently allocated     0.00E+00 Mbytes, locked:    0 /   0

     iteration # 18     ecut=    60.00 Ry     beta= 0.70
     Davidson diagonalization with overlap

---- Real-time Memory Report at c_bands before calling an iterative solver
          1055 MiB given to the printing process from OS
           633 MiB allocation reported by mallinfo(arena+hblkhd)
       1775126 MiB available memory on the node where the printing process lives
     GPU memory used/free/total (MiB): 2271 / 180370 / 182642
------------------
     ethr =  2.51E-12,  avg # of iterations =  3.5

     total cpu time spent up to now is       14.3 secs

     total energy              =    -936.83593810 Ry
     estimated scf accuracy    <          1.4E-10 Ry
[tb_dev] Currently allocated     0.00E+00 Mbytes, locked:    0 /   0
[tb_pin] Currently allocated     0.00E+00 Mbytes, locked:    0 /   0

     iteration # 19     ecut=    60.00 Ry     beta= 0.70
     Davidson diagonalization with overlap

---- Real-time Memory Report at c_bands before calling an iterative solver
          1055 MiB given to the printing process from OS
           633 MiB allocation reported by mallinfo(arena+hblkhd)
       1775419 MiB available memory on the node where the printing process lives
     GPU memory used/free/total (MiB): 2271 / 180370 / 182642
------------------
     ethr =  2.00E-13,  avg # of iterations =  6.6

     total cpu time spent up to now is       15.2 secs

     total energy              =    -936.83593810 Ry
     estimated scf accuracy    <          2.1E-10 Ry
[tb_dev] Currently allocated     0.00E+00 Mbytes, locked:    0 /   0
[tb_pin] Currently allocated     0.00E+00 Mbytes, locked:    0 /   0

     iteration # 20     ecut=    60.00 Ry     beta= 0.70
     Davidson diagonalization with overlap

---- Real-time Memory Report at c_bands before calling an iterative solver
          1055 MiB given to the printing process from OS
           633 MiB allocation reported by mallinfo(arena+hblkhd)
       1775736 MiB available memory on the node where the printing process lives
     GPU memory used/free/total (MiB): 2271 / 180370 / 182642
------------------
     ethr =  2.00E-13,  avg # of iterations =  1.0

     total cpu time spent up to now is       15.6 secs

     total energy              =    -936.83593810 Ry
     estimated scf accuracy    <          1.4E-10 Ry
[tb_dev] Currently allocated     0.00E+00 Mbytes, locked:    0 /   0
[tb_pin] Currently allocated     0.00E+00 Mbytes, locked:    0 /   0

     iteration # 21     ecut=    60.00 Ry     beta= 0.70
     Davidson diagonalization with overlap

---- Real-time Memory Report at c_bands before calling an iterative solver
          1055 MiB given to the printing process from OS
           633 MiB allocation reported by mallinfo(arena+hblkhd)
       1774946 MiB available memory on the node where the printing process lives
     GPU memory used/free/total (MiB): 2271 / 180370 / 182642
------------------
     ethr =  2.00E-13,  avg # of iterations =  2.9

     total cpu time spent up to now is       16.2 secs

     total energy              =    -936.83593810 Ry
     estimated scf accuracy    <          5.7E-12 Ry
[tb_dev] Currently allocated     0.00E+00 Mbytes, locked:    0 /   0
[tb_pin] Currently allocated     0.00E+00 Mbytes, locked:    0 /   0

     iteration # 22     ecut=    60.00 Ry     beta= 0.70
     Davidson diagonalization with overlap

---- Real-time Memory Report at c_bands before calling an iterative solver
          1055 MiB given to the printing process from OS
           633 MiB allocation reported by mallinfo(arena+hblkhd)
       1774897 MiB available memory on the node where the printing process lives
     GPU memory used/free/total (MiB): 2271 / 180370 / 182642
------------------
     ethr =  1.00E-13,  avg # of iterations =  1.0

     total cpu time spent up to now is       16.6 secs

     total energy              =    -936.83593810 Ry
     estimated scf accuracy    <          3.5E-12 Ry
[tb_dev] Currently allocated     0.00E+00 Mbytes, locked:    0 /   0
[tb_pin] Currently allocated     0.00E+00 Mbytes, locked:    0 /   0

     iteration # 23     ecut=    60.00 Ry     beta= 0.70
     Davidson diagonalization with overlap

---- Real-time Memory Report at c_bands before calling an iterative solver
          1055 MiB given to the printing process from OS
           633 MiB allocation reported by mallinfo(arena+hblkhd)
       1775871 MiB available memory on the node where the printing process lives
     GPU memory used/free/total (MiB): 2271 / 180370 / 182642
------------------
     ethr =  1.00E-13,  avg # of iterations =  1.0

     total cpu time spent up to now is       17.0 secs

     End of self-consistent calculation

          k = 0.0000 0.0000 0.0000 (  5463 PWs)   bands (ev):

   -46.3344 -46.3160 -34.2036 -34.2001 -22.7544 -22.7544 -22.6766 -22.5712
   -22.5712 -22.4542  -9.4084  -8.7258  -8.7258  -7.6868  -7.4470  -7.4470
     2.9489   2.9489   3.1312   3.2309   3.2309   4.2355   5.4622   5.5150
     5.5150   6.3105   6.7167   6.7167   6.8675   6.9499   6.9499   7.1126
     7.5943   7.5943

     occupation numbers 
     1.0000   1.0000   1.0000   1.0000   1.0000   1.0000   1.0000   1.0000
     1.0000   1.0000   1.0000   1.0000   1.0000   1.0000   1.0000   1.0000
     1.0000   1.0000   1.0000   1.0000   1.0000   1.0000   1.0000   1.0000
     1.0000   1.0000   1.0000   1.0000   1.0000   1.0000   1.0000   1.0000
     1.0000   1.0000

          k = 0.0000-0.2069 0.0659 (  5452 PWs)   bands (ev):

   -46.3332 -46.3172 -34.2034 -34.2004 -22.7446 -22.7429 -22.6614 -22.5855
   -22.5843 -22.4691  -9.2897  -8.6569  -8.6545  -7.7727  -7.5664  -7.5486
     2.8912   2.9984   3.2897   3.5073   3.5112   4.2863   5.1393   5.2242
     5.3217   6.2920   6.4668   6.7386   6.7412   7.0585   7.1339   7.1915
     7.4408   7.5088

     occupation numbers 
     1.0000   1.0000   1.0000   1.0000   1.0000   1.0000   1.0000   1.0000
     1.0000   1.0000   1.0000   1.0000   1.0000   1.0000   1.0000   1.0000
     1.0000   1.0000   1.0000   1.0000   1.0000   1.0000   1.0000   1.0000
     1.0000   1.0000   1.0000   1.0000   1.0000   1.0000   1.0000   1.0000
     1.0000   1.0000

          k = 0.0000-0.4138 0.1317 (  5458 PWs)   bands (ev):

   -46.3298 -46.3206 -34.2028 -34.2011 -22.7155 -22.7109 -22.6233 -22.6211
   -22.6187 -22.5097  -8.9628  -8.4702  -8.4571  -8.0316  -7.8549  -7.8076
     3.0632   3.2360   3.5857   4.0486   4.0934   4.3932   4.4229   4.7820
     5.0256   5.7247   6.1015   6.4124   7.0025   7.0511   7.1037   7.2514
     7.3697   7.5141

     occupation numbers 
     1.0000   1.0000   1.0000   1.0000   1.0000   1.0000   1.0000   1.0000
     1.0000   1.0000   1.0000   1.0000   1.0000   1.0000   1.0000   1.0000
     1.0000   1.0000   1.0000   1.0000   1.0000   1.0000   1.0000   1.0000
     1.0000   1.0000   1.0000   1.0000   1.0000   1.0000   1.0000   1.0000
     1.0000   1.0000

          k =-0.0000 0.6207-0.1976 (  5426 PWs)   bands (ev):

   -46.3251 -46.3251 -34.2020 -34.2020 -22.6715 -22.6715 -22.6659 -22.6659
   -22.5650 -22.5650  -8.5256  -8.5256  -8.1928  -8.1928  -8.0975  -8.0975
     3.4622   3.4622   3.7373   3.7373   4.2530   4.2530   4.7492   4.7492
     5.2410   5.2410   5.7217   5.7217   7.1291   7.1291   7.2888   7.2888
     7.3766   7.3766

     occupation numbers 
     1.0000   1.0000   1.0000   1.0000   1.0000   1.0000   1.0000   1.0000
     1.0000   1.0000   1.0000   1.0000   1.0000   1.0000   1.0000   1.0000
     1.0000   1.0000   1.0000   1.0000   1.0000   1.0000   1.0000   1.0000
     1.0000   1.0000   1.0000   1.0000   1.0000   1.0000   1.0000   1.0000
     1.0000   1.0000

          k =-0.1792-0.1034 0.1317 (  5436 PWs)   bands (ev):

   -46.3329 -46.3175 -34.2033 -34.2004 -22.7578 -22.7334 -22.6484 -22.6125
   -22.5689 -22.4673  -9.2827  -8.7050  -8.5447  -7.8930  -7.5796  -7.4880
     2.9517   3.0049   3.1725   3.5187   3.6301   4.4450   4.7444   5.4034
     5.4855   6.2909   6.4077   6.6214   6.7583   6.9051   7.0620   7.1762
     7.4720   7.5263

     occupation numbers 
     1.0000   1.0000   1.0000   1.0000   1.0000   1.0000   1.0000   1.0000
     1.0000   1.0000   1.0000   1.0000   1.0000   1.0000   1.0000   1.0000
     1.0000   1.0000   1.0000   1.0000   1.0000   1.0000   1.0000   1.0000
     1.0000   1.0000   1.0000   1.0000   1.0000   1.0000   1.0000   1.0000
     1.0000   1.0000

          k =-0.1792-0.3103 0.1976 (  5444 PWs)   bands (ev):

   -46.3305 -46.3199 -34.2030 -34.2009 -22.7498 -22.7146 -22.6600 -22.6036
   -22.5810 -22.4866  -9.0932  -8.6185  -8.3235  -8.1716  -7.7053  -7.6302
     2.8861   3.1784   3.5628   3.7672   3.9450   4.2075   4.7591   4.9673
     5.3888   5.9279   6.3144   6.5854   6.7011   6.8602   6.9819   7.2148
     7.3518   7.5151

     occupation numbers 
     1.0000   1.0000   1.0000   1.0000   1.0000   1.0000   1.0000   1.0000
     1.0000   1.0000   1.0000   1.0000   1.0000   1.0000   1.0000   1.0000
     1.0000   1.0000   1.0000   1.0000   1.0000   1.0000   1.0000   1.0000
     1.0000   1.0000   1.0000   1.0000   1.0000   1.0000   1.0000   1.0000
     1.0000   1.0000

          k =-0.1792 0.7241-0.1317 (  5446 PWs)   bands (ev):

   -46.3267 -46.3236 -34.2023 -34.2017 -22.7203 -22.7074 -22.6780 -22.6173
   -22.5520 -22.5274  -8.7547  -8.5554  -8.4138  -7.9899  -7.9729  -7.9010
     3.0817   3.3354   3.5789   4.0086   4.2281   4.3508   4.5643   4.8313
     5.1039   5.5616   6.0225   6.3460   6.7733   6.9956   7.0404   7.1706
     7.3624   7.4595

     occupation numbers 
     1.0000   1.0000   1.0000   1.0000   1.0000   1.0000   1.0000   1.0000
     1.0000   1.0000   1.0000   1.0000   1.0000   1.0000   1.0000   1.0000
     1.0000   1.0000   1.0000   1.0000   1.0000   1.0000   1.0000   1.0000
     1.0000   1.0000   1.0000   1.0000   1.0000   1.0000   1.0000   1.0000
     1.0000   1.0000

          k =-0.1792 0.5172-0.0659 (  5455 PWs)   bands (ev):

   -46.3278 -46.3225 -34.2025 -34.2014 -22.7400 -22.6747 -22.6654 -22.6315
   -22.5807 -22.5098  -8.8746  -8.3962  -8.3019  -8.1943  -8.1057  -7.7098
     3.0272   3.4519   3.6140   3.7580   3.9828   4.4239   4.7054   4.9013
     5.2181   5.6056   5.8969   6.5846   6.6609   6.8970   7.0797   7.2874
     7.3450   7.4926

     occupation numbers 
     1.0000   1.0000   1.0000   1.0000   1.0000   1.0000   1.0000   1.0000
     1.0000   1.0000   1.0000   1.0000   1.0000   1.0000   1.0000   1.0000
     1.0000   1.0000   1.0000   1.0000   1.0000   1.0000   1.0000   1.0000
     1.0000   1.0000   1.0000   1.0000   1.0000   1.0000   1.0000   1.0000
     1.0000   1.0000

          k =-0.1792 0.3103 0.0000 (  5446 PWs)   bands (ev):

   -46.3313 -46.3190 -34.2031 -34.2007 -22.7505 -22.7114 -22.6321 -22.6246
   -22.5928 -22.4834  -9.1347  -8.5920  -8.4801  -7.9526  -7.8132  -7.5603
     2.9247   3.1140   3.4636   3.5355   4.0649   4.4171   4.5551   4.8317
     5.5005   6.1497   6.3671   6.5059   6.8388   6.9796   7.0544   7.2362
     7.2984   7.5492

     occupation numbers 
     1.0000   1.0000   1.0000   1.0000   1.0000   1.0000   1.0000   1.0000
     1.0000   1.0000   1.0000   1.0000   1.0000   1.0000   1.0000   1.0000
     1.0000   1.0000   1.0000   1.0000   1.0000   1.0000   1.0000   1.0000
     1.0000   1.0000   1.0000   1.0000   1.0000   1.0000   1.0000   1.0000
     1.0000   1.0000

          k =-0.3583-0.2069 0.2634 (  5454 PWs)   bands (ev):

   -46.3298 -46.3206 -34.2029 -34.2010 -22.7645 -22.7246 -22.7103 -22.5646
   -22.5555 -22.4753  -9.1096  -8.6637  -8.4474  -8.0568  -7.6480  -7.5737
     2.9094   3.0435   3.3020   3.4757   4.0273   4.3754   5.0651   5.2659
     5.7617   5.9954   6.2240   6.4939   6.5026   6.7548   6.8344   7.1506
     7.1903   7.4382

     occupation numbers 
     1.0000   1.0000   1.0000   1.0000   1.0000   1.0000   1.0000   1.0000
     1.0000   1.0000   1.0000   1.0000   1.0000   1.0000   1.0000   1.0000
     1.0000   1.0000   1.0000   1.0000   1.0000   1.0000   1.0000   1.0000
     1.0000   1.0000   1.0000   1.0000   1.0000   1.0000   1.0000   1.0000
     1.0000   1.0000

          k =-0.3583 0.8275-0.0659 (  5456 PWs)   bands (ev):

   -46.3278 -46.3225 -34.2025 -34.2014 -22.7555 -22.7461 -22.7112 -22.5770
   -22.5176 -22.4902  -8.9653  -8.6766  -8.5748  -7.8266  -7.7544  -7.7005
     2.8457   3.0310   3.2624   3.5842   4.2724   4.6354   4.8524   5.2987
     5.5620   5.9570   6.2046   6.3609   6.4988   6.7129   6.8654   6.9805
     7.2225   7.4669

     occupation numbers 
     1.0000   1.0000   1.0000   1.0000   1.0000   1.0000   1.0000   1.0000
     1.0000   1.0000   1.0000   1.0000   1.0000   1.0000   1.0000   1.0000
     1.0000   1.0000   1.0000   1.0000   1.0000   1.0000   1.0000   1.0000
     1.0000   1.0000   1.0000   1.0000   1.0000   1.0000   1.0000   1.0000
     1.0000   1.0000

          k =-0.3583 0.6207 0.0000 (  5448 PWs)   bands (ev):

   -46.3251 -46.3251 -34.2020 -34.2020 -22.7566 -22.7231 -22.6749 -22.6149
   -22.5292 -22.5026  -8.8141  -8.6851  -8.3902  -8.0261  -7.9327  -7.6917
     2.8951   3.0883   3.5646   3.8755   4.2157   4.3247   4.7890   5.1475
     5.4221   5.7249   6.0547   6.3060   6.7221   6.7690   6.8781   7.1698
     7.2376   7.4808

     occupation numbers 
     1.0000   1.0000   1.0000   1.0000   1.0000   1.0000   1.0000   1.0000
     1.0000   1.0000   1.0000   1.0000   1.0000   1.0000   1.0000   1.0000
     1.0000   1.0000   1.0000   1.0000   1.0000   1.0000   1.0000   1.0000
     1.0000   1.0000   1.0000   1.0000   1.0000   1.0000   1.0000   1.0000
     1.0000   1.0000

          k = 0.5375 0.3103-0.3952 (  5452 PWs)   bands (ev):

   -46.3282 -46.3221 -34.2026 -34.2013 -22.7682 -22.7607 -22.7252 -22.5619
   -22.5034 -22.4760  -9.0440  -8.7286  -8.6284  -7.7649  -7.6715  -7.6155
     2.8914   2.8963   3.0347   3.2399   4.5885   4.8452   5.1514   5.5250
     5.6067   5.7350   6.1881   6.2326   6.5542   6.6490   6.8533   6.9593
     7.1583   7.3982

     occupation numbers 
     1.0000   1.0000   1.0000   1.0000   1.0000   1.0000   1.0000   1.0000
     1.0000   1.0000   1.0000   1.0000   1.0000   1.0000   1.0000   1.0000
     1.0000   1.0000   1.0000   1.0000   1.0000   1.0000   1.0000   1.0000
     1.0000   1.0000   1.0000   1.0000   1.0000   1.0000   1.0000   1.0000
     1.0000   1.0000

          k = 0.0000 0.0000 0.1976 (  5448 PWs)   bands (ev):

   -46.3332 -46.3172 -34.2034 -34.2004 -22.7426 -22.7426 -22.6627 -22.5840
   -22.5840 -22.4702  -9.3041  -8.6486  -8.6486  -7.8162  -7.5434  -7.5434
     3.0482   3.0482   3.2770   3.4555   3.4555   4.3461   5.2239   5.2775
     5.2775   6.3807   6.3807   6.4150   6.6424   6.9714   6.9714   7.1387
     7.6075   7.6075

     occupation numbers 
     1.0000   1.0000   1.0000   1.0000   1.0000   1.0000   1.0000   1.0000
     1.0000   1.0000   1.0000   1.0000   1.0000   1.0000   1.0000   1.0000
     1.0000   1.0000   1.0000   1.0000   1.0000   1.0000   1.0000   1.0000
     1.0000   1.0000   1.0000   1.0000   1.0000   1.0000   1.0000   1.0000
     1.0000   1.0000

          k = 0.0000-0.2069 0.2634 (  5441 PWs)   bands (ev):

   -46.3313 -46.3191 -34.2031 -34.2007 -22.7507 -22.7074 -22.6343 -22.6215
   -22.5938 -22.4845  -9.1555  -8.5809  -8.4713  -8.0176  -7.7688  -7.5622
     2.9613   3.1829   3.5024   3.7425   3.9350   4.4879   4.7106   4.8728
     5.2715   5.8278   6.2586   6.5197   6.5912   6.9590   7.1424   7.1537
     7.4657   7.5186

     occupation numbers 
     1.0000   1.0000   1.0000   1.0000   1.0000   1.0000   1.0000   1.0000
     1.0000   1.0000   1.0000   1.0000   1.0000   1.0000   1.0000   1.0000
     1.0000   1.0000   1.0000   1.0000   1.0000   1.0000   1.0000   1.0000
     1.0000   1.0000   1.0000   1.0000   1.0000   1.0000   1.0000   1.0000
     1.0000   1.0000

          k =-0.0000 0.8275-0.0659 (  5450 PWs)   bands (ev):

   -46.3278 -46.3225 -34.2025 -34.2015 -22.7413 -22.6706 -22.6607 -22.6347
   -22.5831 -22.5099  -8.8827  -8.3922  -8.3631  -8.1727  -8.0638  -7.7233
     2.9807   3.3980   3.8787   4.0061   4.1452   4.4143   4.4274   4.9381
     5.1148   5.2399   5.9778   6.4675   6.7861   6.8428   7.1397   7.2169
     7.3622   7.4032

     occupation numbers 
     1.0000   1.0000   1.0000   1.0000   1.0000   1.0000   1.0000   1.0000
     1.0000   1.0000   1.0000   1.0000   1.0000   1.0000   1.0000   1.0000
     1.0000   1.0000   1.0000   1.0000   1.0000   1.0000   1.0000   1.0000
     1.0000   1.0000   1.0000   1.0000   1.0000   1.0000   1.0000   1.0000
     1.0000   1.0000

          k = 0.0000 0.6207 0.0000 (  5450 PWs)   bands (ev):

   -46.3267 -46.3236 -34.2023 -34.2017 -22.7173 -22.7090 -22.6819 -22.6142
   -22.5515 -22.5286  -8.7606  -8.5545  -8.4003  -8.0025  -7.9895  -7.8803
     3.2511   3.3595   3.4772   3.6770   4.1299   4.4080   4.7430   4.9749
     5.2944   5.5479   5.9619   6.1970   6.7528   6.9796   7.0550   7.2023
     7.2648   7.4972

     occupation numbers 
     1.0000   1.0000   1.0000   1.0000   1.0000   1.0000   1.0000   1.0000
     1.0000   1.0000   1.0000   1.0000   1.0000   1.0000   1.0000   1.0000
     1.0000   1.0000   1.0000   1.0000   1.0000   1.0000   1.0000   1.0000
     1.0000   1.0000   1.0000   1.0000   1.0000   1.0000   1.0000   1.0000
     1.0000   1.0000

          k = 0.0000 0.4138 0.0659 (  5443 PWs)   bands (ev):

   -46.3305 -46.3199 -34.2030 -34.2009 -22.7487 -22.7168 -22.6612 -22.6030
   -22.5801 -22.4866  -9.0871  -8.6255  -8.3055  -8.1786  -7.7174  -7.6205
     3.0274   3.1537   3.2290   3.8800   3.9149   4.1318   4.7752   5.1129
     5.3920   6.1191   6.3775   6.5579   6.6649   6.7563   7.0168   7.2261
     7.3303   7.5178

     occupation numbers 
     1.0000   1.0000   1.0000   1.0000   1.0000   1.0000   1.0000   1.0000
     1.0000   1.0000   1.0000   1.0000   1.0000   1.0000   1.0000   1.0000
     1.0000   1.0000   1.0000   1.0000   1.0000   1.0000   1.0000   1.0000
     1.0000   1.0000   1.0000   1.0000   1.0000   1.0000   1.0000   1.0000
     1.0000   1.0000

          k =-0.1792-0.1034 0.3293 (  5434 PWs)   bands (ev):

   -46.3305 -46.3199 -34.2029 -34.2009 -22.7482 -22.7138 -22.6589 -22.6046
   -22.5796 -22.4879  -9.1150  -8.6063  -8.2963  -8.2193  -7.7192  -7.6094
     3.0944   3.1630   3.5542   3.8546   3.8935   4.2252   4.7965   5.1181
     5.2602   5.8448   6.0953   6.5049   6.6009   6.7632   6.8970   7.2047
     7.3958   7.5319

     occupation numbers 
     1.0000   1.0000   1.0000   1.0000   1.0000   1.0000   1.0000   1.0000
     1.0000   1.0000   1.0000   1.0000   1.0000   1.0000   1.0000   1.0000
     1.0000   1.0000   1.0000   1.0000   1.0000   1.0000   1.0000   1.0000
     1.0000   1.0000   1.0000   1.0000   1.0000   1.0000   1.0000   1.0000
     1.0000   1.0000

          k =-0.1792 0.9310 0.0000 (  5435 PWs)   bands (ev):

   -46.3282 -46.3221 -34.2026 -34.2014 -22.7547 -22.7082 -22.6872 -22.5982
   -22.5547 -22.4940  -8.9783  -8.5218  -8.4877  -8.0230  -7.9147  -7.6357
     2.9490   3.2523   3.5546   3.9583   4.0434   4.4002   4.6143   5.1186
     5.3873   5.7307   6.1408   6.3325   6.5345   6.7325   6.9306   7.1407
     7.2819   7.4211

     occupation numbers 
     1.0000   1.0000   1.0000   1.0000   1.0000   1.0000   1.0000   1.0000
     1.0000   1.0000   1.0000   1.0000   1.0000   1.0000   1.0000   1.0000
     1.0000   1.0000   1.0000   1.0000   1.0000   1.0000   1.0000   1.0000
     1.0000   1.0000   1.0000   1.0000   1.0000   1.0000   1.0000   1.0000
     1.0000   1.0000

          k =-0.1792 0.7241 0.0659 (  5444 PWs)   bands (ev):

   -46.3251 -46.3251 -34.2020 -34.2020 -22.7446 -22.7431 -22.6433 -22.6411
   -22.5146 -22.5138  -8.7763  -8.7599  -8.2864  -8.1812  -7.7824  -7.7613
     2.9736   3.0958   3.5072   3.7796   4.2745   4.6726   4.6915   4.9971
     5.3159   5.7476   6.2311   6.3484   6.4381   6.7214   6.9290   7.1136
     7.2838   7.4113

     occupation numbers 
     1.0000   1.0000   1.0000   1.0000   1.0000   1.0000   1.0000   1.0000
     1.0000   1.0000   1.0000   1.0000   1.0000   1.0000   1.0000   1.0000
     1.0000   1.0000   1.0000   1.0000   1.0000   1.0000   1.0000   1.0000
     1.0000   1.0000   1.0000   1.0000   1.0000   1.0000   1.0000   1.0000
     1.0000   1.0000

          k =-0.1792 0.5172 0.1317 (  5456 PWs)   bands (ev):

   -46.3282 -46.3221 -34.2026 -34.2014 -22.7547 -22.7100 -22.6898 -22.5982
   -22.5536 -22.4934  -8.9614  -8.5236  -8.4735  -8.0240  -7.9248  -7.6308
     2.9052   3.2624   3.4001   3.6934   4.0479   4.4662   4.6466   5.2455
     5.4293   5.9550   6.0699   6.3906   6.6835   6.8547   6.9459   7.0497
     7.2770   7.4977

     occupation numbers 
     1.0000   1.0000   1.0000   1.0000   1.0000   1.0000   1.0000   1.0000
     1.0000   1.0000   1.0000   1.0000   1.0000   1.0000   1.0000   1.0000
     1.0000   1.0000   1.0000   1.0000   1.0000   1.0000   1.0000   1.0000
     1.0000   1.0000   1.0000   1.0000   1.0000   1.0000   1.0000   1.0000
     1.0000   1.0000

          k = 0.7167 0.4138-0.3293 (  5465 PWs)   bands (ev):

   -46.3278 -46.3225 -34.2025 -34.2014 -22.7542 -22.7456 -22.7115 -22.5757
   -22.5178 -22.4912  -8.9802  -8.6852  -8.5630  -7.8289  -7.7733  -7.6832
     3.0460   3.1073   3.1228   3.5358   4.3674   4.5446   4.9534   5.2386
     5.7399   5.8394   6.1953   6.1988   6.5597   6.6109   6.8311   6.9156
     7.1022   7.4576

     occupation numbers 
     1.0000   1.0000   1.0000   1.0000   1.0000   1.0000   1.0000   1.0000
     1.0000   1.0000   1.0000   1.0000   1.0000   1.0000   1.0000   1.0000
     1.0000   1.0000   1.0000   1.0000   1.0000   1.0000   1.0000   1.0000
     1.0000   1.0000   1.0000   1.0000   1.0000   1.0000   1.0000   1.0000
     1.0000   1.0000

          k = 0.7167 0.2069-0.2634 (  5462 PWs)   bands (ev):

   -46.3267 -46.3236 -34.2023 -34.2017 -22.7595 -22.7571 -22.6876 -22.5964
   -22.5032 -22.4944  -8.9072  -8.7688  -8.4702  -7.9603  -7.7290  -7.6673
     2.8922   2.9198   3.2789   3.8062   4.0856   4.8359   5.0125   5.2082
     5.6709   5.8183   6.0545   6.2012   6.4671   6.6338   6.9256   7.0315
     7.1532   7.4430

     occupation numbers 
     1.0000   1.0000   1.0000   1.0000   1.0000   1.0000   1.0000   1.0000
     1.0000   1.0000   1.0000   1.0000   1.0000   1.0000   1.0000   1.0000
     1.0000   1.0000   1.0000   1.0000   1.0000   1.0000   1.0000   1.0000
     1.0000   1.0000   1.0000   1.0000   1.0000   1.0000   1.0000   1.0000
     1.0000   1.0000

          k = 0.7167-0.0000-0.1976 (  5460 PWs)   bands (ev):

   -46.3251 -46.3251 -34.2020 -34.2020 -22.7440 -22.7440 -22.6428 -22.6428
   -22.5138 -22.5138  -8.7632  -8.7632  -8.2377  -8.2377  -7.7690  -7.7690
     2.9847   2.9847   3.6678   3.6678   4.4000   4.4000   4.8623   4.8623
     5.5290   5.5290   6.3285   6.3285   6.6511   6.6511   7.0247   7.0247
     7.3827   7.3827

     occupation numbers 
     1.0000   1.0000   1.0000   1.0000   1.0000   1.0000   1.0000   1.0000
     1.0000   1.0000   1.0000   1.0000   1.0000   1.0000   1.0000   1.0000
     1.0000   1.0000   1.0000   1.0000   1.0000   1.0000   1.0000   1.0000
     1.0000   1.0000   1.0000   1.0000   1.0000   1.0000   1.0000   1.0000
     1.0000   1.0000

          k = 0.5375 0.3103-0.1976 (  5457 PWs)   bands (ev):

   -46.3278 -46.3225 -34.2026 -34.2014 -22.7546 -22.7464 -22.7125 -22.5760
   -22.5175 -22.4908  -8.9675  -8.6793  -8.5676  -7.8319  -7.7635  -7.6885
     2.9735   3.0954   3.1240   3.3909   4.3430   4.6664   4.9850   5.2388
     5.6624   5.8161   6.2756   6.4558   6.5746   6.5754   6.8854   6.9287
     7.0982   7.4781

     occupation numbers 
     1.0000   1.0000   1.0000   1.0000   1.0000   1.0000   1.0000   1.0000
     1.0000   1.0000   1.0000   1.0000   1.0000   1.0000   1.0000   1.0000
     1.0000   1.0000   1.0000   1.0000   1.0000   1.0000   1.0000   1.0000
     1.0000   1.0000   1.0000   1.0000   1.0000   1.0000   1.0000   1.0000
     1.0000   1.0000

          k = 0.0000 0.0000 0.3952 (  5440 PWs)   bands (ev):

   -46.3298 -46.3206 -34.2028 -34.2010 -22.7100 -22.7100 -22.6240 -22.6185
   -22.6185 -22.5129  -9.0126  -8.4328  -8.4328  -8.1570  -7.7973  -7.7973
     3.3914   3.3914   3.6559   4.0272   4.0272   4.6694   4.6694   4.7022
     4.7103   5.6720   5.6720   6.0378   6.6719   7.0736   7.0736   7.1204
     7.5118   7.5118

     occupation numbers 
     1.0000   1.0000   1.0000   1.0000   1.0000   1.0000   1.0000   1.0000
     1.0000   1.0000   1.0000   1.0000   1.0000   1.0000   1.0000   1.0000
     1.0000   1.0000   1.0000   1.0000   1.0000   1.0000   1.0000   1.0000
     1.0000   1.0000   1.0000   1.0000   1.0000   1.0000   1.0000   1.0000
     1.0000   1.0000

          k = 0.0000 1.0344 0.0659 (  5447 PWs)   bands (ev):

   -46.3279 -46.3225 -34.2024 -34.2014 -22.7389 -22.6700 -22.6601 -22.6320
   -22.5844 -22.5115  -8.9121  -8.4095  -8.3384  -8.1845  -8.0731  -7.7106
     3.1997   3.5521   3.7975   4.0847   4.1145   4.3731   4.6180   4.9486
     5.0716   5.1101   5.7278   6.2726   6.6547   6.7019   7.1377   7.2624
     7.3301   7.3826

     occupation numbers 
     1.0000   1.0000   1.0000   1.0000   1.0000   1.0000   1.0000   1.0000
     1.0000   1.0000   1.0000   1.0000   1.0000   1.0000   1.0000   1.0000
     1.0000   1.0000   1.0000   1.0000   1.0000   1.0000   1.0000   1.0000
     1.0000   1.0000   1.0000   1.0000   1.0000   1.0000   1.0000   1.0000
     1.0000   1.0000

          k = 0.0000 0.8275 0.1317 (  5435 PWs)   bands (ev):

   -46.3252 -46.3251 -34.2020 -34.2019 -22.7566 -22.7197 -22.6768 -22.6111
   -22.5315 -22.5030  -8.8243  -8.7156  -8.3719  -8.0342  -7.9191  -7.6978
     2.9437   3.3533   3.4570   3.9108   4.2090   4.2530   4.9800   5.0920
     5.5087   5.6152   6.1113   6.1244   6.3960   6.7229   6.9934   6.9941
     7.1775   7.4683

     occupation numbers 
     1.0000   1.0000   1.0000   1.0000   1.0000   1.0000   1.0000   1.0000
     1.0000   1.0000   1.0000   1.0000   1.0000   1.0000   1.0000   1.0000
     1.0000   1.0000   1.0000   1.0000   1.0000   1.0000   1.0000   1.0000
     1.0000   1.0000   1.0000   1.0000   1.0000   1.0000   1.0000   1.0000
     1.0000   1.0000

          k = 0.8958 0.5172-0.2634 (  5446 PWs)   bands (ev):

   -46.3267 -46.3237 -34.2022 -34.2016 -22.7163 -22.7058 -22.6779 -22.6133
   -22.5536 -22.5305  -8.8044  -8.5867  -8.3794  -8.0066  -7.9870  -7.8690
     3.4841   3.4919   3.6097   4.0896   4.2240   4.3158   4.5060   4.7983
     5.1899   5.4145   5.7658   5.9173   6.7312   6.8180   6.9972   7.1767
     7.2172   7.4487

     occupation numbers 
     1.0000   1.0000   1.0000   1.0000   1.0000   1.0000   1.0000   1.0000
     1.0000   1.0000   1.0000   1.0000   1.0000   1.0000   1.0000   1.0000
     1.0000   1.0000   1.0000   1.0000   1.0000   1.0000   1.0000   1.0000
     1.0000   1.0000   1.0000   1.0000   1.0000   1.0000   1.0000   1.0000
     1.0000   1.0000

          k = 0.8958 0.3103-0.1976 (  5440 PWs)   bands (ev):

   -46.3252 -46.3252 -34.2020 -34.2020 -22.7428 -22.7428 -22.6412 -22.6412
   -22.5149 -22.5149  -8.7851  -8.7851  -8.2297  -8.2297  -7.7705  -7.7705
     3.1405   3.1405   3.6351   3.6351   4.5407   4.5407   4.7685   4.7685
     5.5469   5.5469   6.1189   6.1189   6.5773   6.5773   6.9418   6.9418
     7.3373   7.3373

     occupation numbers 
     1.0000   1.0000   1.0000   1.0000   1.0000   1.0000   1.0000   1.0000
     1.0000   1.0000   1.0000   1.0000   1.0000   1.0000   1.0000   1.0000
     1.0000   1.0000   1.0000   1.0000   1.0000   1.0000   1.0000   1.0000
     1.0000   1.0000   1.0000   1.0000   1.0000   1.0000   1.0000   1.0000
     1.0000   1.0000

          k =-0.0000 0.0000-0.5927 (  5512 PWs)   bands (ev):

   -46.3252 -46.3252 -34.2019 -34.2019 -22.6647 -22.6647 -22.6647 -22.6647
   -22.5695 -22.5695  -8.5969  -8.5969  -8.1244  -8.1244  -8.1244  -8.1244
     3.9610   3.9610   3.9610   3.9610   4.1566   4.1566   4.8259   4.8259
     4.8259   4.8259   5.3090   5.3090   6.9495   6.9495   7.2945   7.2945
     7.2945   7.2945

     occupation numbers 
     1.0000   1.0000   1.0000   1.0000   1.0000   1.0000   1.0000   1.0000
     1.0000   1.0000   1.0000   1.0000   1.0000   1.0000   1.0000   1.0000
     1.0000   1.0000   1.0000   1.0000   1.0000   1.0000   1.0000   1.0000
     1.0000   1.0000   1.0000   1.0000   1.0000   1.0000   1.0000   1.0000
     1.0000   1.0000

     highest occupied level (ev):     7.6075

!    total energy              =    -936.83593810 Ry
     estimated scf accuracy    <          1.8E-13 Ry

     The total energy is the sum of the following terms:
     one-electron contribution =    -135.61728625 Ry
     hartree contribution      =     103.54100125 Ry
     xc contribution           =    -108.45468105 Ry
     ewald contribution        =    -332.84850852 Ry
     one-center paw contrib.   =    -463.45646353 Ry
      -> PAW hartree energy AE =     295.98163975 Ry
      -> PAW hartree energy PS =    -294.45165462 Ry
      -> PAW xc energy AE      =    -561.04703878 Ry
      -> PAW xc energy PS      =      96.06059011 Ry
      -> total E_H with PAW    =     105.07098638 Ry
      -> total E_XC with PAW   =    -573.44112971 Ry

     convergence has been achieved in  23 iterations

     Forces acting on atoms (cartesian axes, Ry/au):

     atom    1 type  1   force =     0.00000000   -0.00000000    0.00092547
     atom    2 type  1   force =     0.00000000   -0.00000000    0.00092547
     atom    3 type  2   force =    -0.01213465    0.00497542    0.00163347
     atom    4 type  2   force =     0.00175848   -0.01299662    0.00163347
     atom    5 type  2   force =     0.01037617    0.00802120    0.00163347
     atom    6 type  2   force =    -0.00175848   -0.01299662    0.00163347
     atom    7 type  2   force =     0.01213465    0.00497542    0.00163347
     atom    8 type  2   force =    -0.01037617    0.00802120    0.00163347
     atom    9 type  3   force =    -0.00000000    0.00000000   -0.00582587
     atom   10 type  3   force =    -0.00000000    0.00000000   -0.00582587
     The non-local contrib.  to forces
     atom    1 type  1   force =    -0.00000000    0.00000000    0.01421810
     atom    2 type  1   force =    -0.00000000   -0.00000000    0.01421810
     atom    3 type  2   force =     0.31097225   -0.16422885   -0.04781954
     atom    4 type  2   force =    -0.01325976    0.35142429   -0.04781954
     atom    5 type  2   force =    -0.29771248   -0.18719544   -0.04781954
     atom    6 type  2   force =     0.01325976    0.35142429   -0.04781954
     atom    7 type  2   force =    -0.31097225   -0.16422885   -0.04781954
     atom    8 type  2   force =     0.29771248   -0.18719544   -0.04781954
     atom    9 type  3   force =    -0.00000000    0.00000000   -0.01864839
     atom   10 type  3   force =    -0.00000000    0.00000000   -0.01864839
     The ionic contribution  to forces
     atom    1 type  1   force =    -0.00000000   -0.00000000   -1.06948473
     atom    2 type  1   force =    -0.00000000   -0.00000000   -1.06948473
     atom    3 type  2   force =    -3.75163274    2.73733353    0.42798640
     atom    4 type  2   force =    -0.49478401   -4.61767603    0.42798640
     atom    5 type  2   force =     4.24641675    1.88034249    0.42798640
     atom    6 type  2   force =     0.49478401   -4.61767603    0.42798641
     atom    7 type  2   force =     3.75163274    2.73733353    0.42798641
     atom    8 type  2   force =    -4.24641675    1.88034250    0.42798641
     atom    9 type  3   force =     0.00000000   -0.00000000   -0.21447448
     atom   10 type  3   force =     0.00000000    0.00000000   -0.21447448
     The local contribution  to forces
     atom    1 type  1   force =    -0.00000000   -0.00000000    1.05619220
     atom    2 type  1   force =    -0.00000000    0.00000000    1.05619220
     atom    3 type  2   force =     3.42950000   -2.56945301   -0.37841703
     atom    4 type  2   force =     0.51046158    4.25476063   -0.37841703
     atom    5 type  2   force =    -3.93996158   -1.68530762   -0.37841703
     atom    6 type  2   force =    -0.51046158    4.25476062   -0.37841703
     atom    7 type  2   force =    -3.42950000   -2.56945300   -0.37841703
     atom    8 type  2   force =     3.93996158   -1.68530762   -0.37841703
     atom    9 type  3   force =    -0.00000000    0.00000000    0.23201372
     atom   10 type  3   force =    -0.00000000    0.00000000    0.23201372
     The core correction contribution to forces
     atom    1 type  1   force =     0.00000000    0.00000000    0.00000000
     atom    2 type  1   force =     0.00000000    0.00000000    0.00000000
     atom    3 type  2   force =    -0.00097440    0.00132383   -0.00011627
     atom    4 type  2   force =    -0.00065927   -0.00150577   -0.00011627
     atom    5 type  2   force =     0.00163367    0.00018194   -0.00011627
     atom    6 type  2   force =     0.00065927   -0.00150577   -0.00011627
     atom    7 type  2   force =     0.00097440    0.00132383   -0.00011627
     atom    8 type  2   force =    -0.00163367    0.00018194   -0.00011627
     atom    9 type  3   force =    -0.00000000    0.00000000   -0.00471674
     atom   10 type  3   force =     0.00000000   -0.00000000   -0.00471674
     The Hubbard contrib.    to forces
     atom    1 type  1   force =     0.00000000    0.00000000    0.00000000
     atom    2 type  1   force =     0.00000000    0.00000000    0.00000000
     atom    3 type  2   force =     0.00000000    0.00000000    0.00000000
     atom    4 type  2   force =     0.00000000    0.00000000    0.00000000
     atom    5 type  2   force =     0.00000000    0.00000000    0.00000000
     atom    6 type  2   force =     0.00000000    0.00000000    0.00000000
     atom    7 type  2   force =     0.00000000    0.00000000    0.00000000
     atom    8 type  2   force =     0.00000000    0.00000000    0.00000000
     atom    9 type  3   force =     0.00000000    0.00000000    0.00000000
     atom   10 type  3   force =     0.00000000    0.00000000    0.00000000
     The SCF correction term to forces
     atom    1 type  1   force =    -0.00000000   -0.00000000    0.00000000
     atom    2 type  1   force =    -0.00000000   -0.00000000    0.00000000
     atom    3 type  2   force =     0.00000026   -0.00000008   -0.00000001
     atom    4 type  2   force =    -0.00000005    0.00000026   -0.00000001
     atom    5 type  2   force =    -0.00000020   -0.00000018   -0.00000001
     atom    6 type  2   force =     0.00000005    0.00000026   -0.00000001
     atom    7 type  2   force =    -0.00000026   -0.00000008   -0.00000001
     atom    8 type  2   force =     0.00000020   -0.00000018   -0.00000001
     atom    9 type  3   force =    -0.00000000   -0.00000000    0.00000012
     atom   10 type  3   force =     0.00000000    0.00000000    0.00000012

     Total force =     0.033431     Total SCF correction =     0.000001


     Computing stress (Cartesian axis) and pressure

          total   stress  (Ry/bohr**3)                   (kbar)     P=       53.35
   0.00041980   0.00000000  -0.00000000           61.75        0.00       -0.00
  -0.00000000   0.00041980   0.00000000           -0.00       61.75        0.00
   0.00000000   0.00000000   0.00024831            0.00        0.00       36.53

     kinetic stress (kbar)  27402.13      0.00      0.00
                               -0.00  27402.13      0.00
                               -0.00      0.00  27335.50

     local   stress (kbar) -12909.06     -0.00      0.00
                               -0.00 -12909.06      0.00
                                0.00      0.00 -11252.57

     nonloc. stress (kbar)   7120.82      0.00     -0.00
                               -0.00   7120.82      0.00
                                0.00      0.00   7164.93

     hartree stress (kbar)   7432.64     -0.00      0.00
                               -0.00   7432.64      0.00
                                0.00      0.00   7068.49

     exc-cor stress (kbar)   1092.77      0.00     -0.00
                                0.00   1092.77     -0.00
                               -0.00     -0.00   1089.84

     corecor stress (kbar)  -7004.88     -0.00      0.00
                               -0.00  -7004.88      0.00
                                0.00      0.00  -7005.53

     ewald   stress (kbar) -23072.67      0.00     -0.00
                                0.00 -23072.67     -0.00
                               -0.00     -0.00 -24364.12

     hubbard stress (kbar)      0.00      0.00      0.00
                                0.00      0.00      0.00
                                0.00      0.00      0.00

     DFT-D   stress (kbar)      0.00      0.00      0.00
                                0.00      0.00      0.00
                                0.00      0.00      0.00

     XDM     stress (kbar)      0.00      0.00      0.00
                                0.00      0.00      0.00
                                0.00      0.00      0.00

     dft-nl  stress (kbar)      0.00      0.00      0.00
                                0.00      0.00      0.00
                                0.00      0.00      0.00

     TS-vdW  stress (kbar)      0.00      0.00      0.00
                                0.00      0.00      0.00
                                0.00      0.00      0.00

     MDB     stress (kbar)      0.00      0.00      0.00
                                0.00      0.00      0.00
                                0.00      0.00      0.00

     3D-RISM stress (kbar)      0.00      0.00      0.00
                                0.00      0.00      0.00
                                0.00      0.00      0.00

     Message from routine punch:
     Nothing written, as per user request (disk_io='none')
 
     init_run     :      0.59s CPU      0.85s WALL (       1 calls)
     electrons    :     15.28s CPU     15.74s WALL (       1 calls)
     forces       :      0.08s CPU      0.08s WALL (       1 calls)
     stress       :      0.16s CPU      0.17s WALL (       1 calls)

     Called by init_run:
     wfcinit      :      0.18s CPU      0.30s WALL (       1 calls)
     wfcinit:atom :      0.03s CPU      0.03s WALL (      32 calls)
     wfcinit:wfcr :      0.13s CPU      0.21s WALL (      32 calls)
     potinit      :      0.10s CPU      0.14s WALL (       1 calls)
     hinit0       :      0.23s CPU      0.27s WALL (       1 calls)

     Called by electrons:
     c_bands      :     11.42s CPU     11.70s WALL (      23 calls)
     sum_band     :      1.61s CPU      1.66s WALL (      23 calls)
     v_of_rho     :      0.08s CPU      0.13s WALL (      24 calls)
     v_h          :      0.03s CPU      0.06s WALL (      24 calls)
     v_xc         :      0.06s CPU      0.07s WALL (      26 calls)
     newd         :      0.23s CPU      0.26s WALL (      24 calls)
     PAW_pot      :      1.81s CPU      1.86s WALL (      24 calls)
     mix_rho      :      0.14s CPU      0.16s WALL (      23 calls)

     Called by c_bands:
     init_us_2    :      0.51s CPU      0.52s WALL (    1568 calls)
     cegterg      :     10.37s CPU     10.61s WALL (     736 calls)

     Called by sum_band:
     sum_band:wei :      0.00s CPU      0.00s WALL (      23 calls)
     sum_band:loo :      1.23s CPU      1.27s WALL (      23 calls)
     sum_band:buf :      0.21s CPU      0.23s WALL (     736 calls)
     sum_band:ini :      0.24s CPU      0.24s WALL (     736 calls)
     sum_band:cal :      0.01s CPU      0.01s WALL (     736 calls)
     sum_band:bec :      0.29s CPU      0.29s WALL (     736 calls)
     addusdens    :      0.25s CPU      0.25s WALL (      23 calls)
                                        0.25s GPU  (      23 calls)
     addusd:skk   :      0.01s CPU      0.01s WALL (      69 calls)
                                        0.01s GPU  (      69 calls)

     Called by *egterg:
     cdiaghg      :      4.67s CPU      4.79s WALL (    3768 calls)
                                        4.75s GPU  (    3768 calls)
     cegterg:over :      0.30s CPU      0.30s WALL (    3032 calls)
     cegterg:upda :      0.91s CPU      0.93s WALL (    3032 calls)
     cegterg:last :      0.12s CPU      0.12s WALL (    2003 calls)
     h_psi        :      2.91s CPU      3.14s WALL (    3800 calls)
     s_psi        :      1.01s CPU      1.03s WALL (    3800 calls)
     g_psi        :      0.06s CPU      0.06s WALL (    3032 calls)

     Called by h_psi:
     h_psi:calbec :      0.08s CPU      0.12s WALL (    3800 calls)
     vloc_psi     :      1.86s CPU      2.08s WALL (    3800 calls)
                                        2.04s GPU  (    3800 calls)
     add_vuspsi   :      0.86s CPU      0.88s WALL (    3800 calls)

     General routines
     calbec       :      0.09s CPU      0.13s WALL (    5080 calls)
     fft          :      0.03s CPU      0.08s WALL (     335 calls)
                                        0.04s GPU  (     311 calls)
     ffts         :      0.01s CPU      0.03s WALL (      47 calls)
                                        0.00s GPU  (      23 calls)
     fftw         :      0.14s CPU      1.25s WALL (   17524 calls)
                                        1.08s GPU  (   17524 calls)
     interpolate  :      0.06s CPU      0.11s WALL (      24 calls)
 
     Parallel routines

     PAW routines
     PAW_pot      :      1.81s CPU      1.86s WALL (      24 calls)
     PAW_symme    :      0.00s CPU      0.00s WALL (      47 calls)
 
     PWSCF        :     16.49s CPU     17.26s WALL

 
   This run was terminated on:  17: 5:53  29Nov2025            

=------------------------------------------------------------------------------=
   JOB DONE.
=------------------------------------------------------------------------------=
