
     Program PWSCF v.7.5 starts on 29Nov2025 at 17: 6: 3 

     This program is part of the open-source Quantum ESPRESSO suite
     for quantum simulation of materials; please cite
         "P. Giannozzi et al., J. Phys.:Condens. Matter 21 395502 (2009);
         "P. Giannozzi et al., J. Phys.:Condens. Matter 29 465901 (2017);
         "P. Giannozzi et al., J. Chem. Phys. 152 154105 (2020);
          URL http://www.quantum-espresso.org", 
     in publications or presentations arising from this work. More details at
     http://www.quantum-espresso.org/quote

     Parallel version (MPI & OpenMP), running on       1 processor cores
     Number of MPI processes:                 1
     Threads/MPI process:                     1

     MPI processes distributed on     1 nodes
     1824954 MiB available memory on the printing compute node when the environment starts
 
     Reading input from espresso.pwi
Warning: card &CELL ignored
Warning: card &FCP ignored
Warning: card &RISM ignored

     Current dimensions of program PWSCF are:
     Max number of different atomic species (ntypx) = 10
     Max number of k-points (npk) =  40000
     Max angular momentum in pseudopotentials (lmaxx) =  4
     file O.pbesol-n-kjpaw_psl.0.1.UPF: wavefunction(s)  2P renormalized
     file Nb.pbesol-spn-kjpaw_psl.0.3.0.UPF: wavefunction(s)  4S 4P renormalized
     Message from routine setup:
     using ibrav=0 with symmetry is DISCOURAGED, use correct ibrav instead
 
     Subspace diagonalization in iterative solution of the eigenvalue problem:
     a serial algorithm will be used

 
     G-vector sticks info
     --------------------
     sticks:   dense  smooth     PW     G-vecs:    dense   smooth      PW
     Sum        2839    1697    495                97681    45397    7157
 
     Using Slab Decomposition
 


     bravais-lattice index     =            0
     lattice parameter (alat)  =      10.2642  a.u.
     unit-cell volume          =     722.4085 (a.u.)^3
     number of atoms/cell      =           10
     number of atomic types    =            3
     number of electrons       =        68.00
     number of Kohn-Sham states=           34
     kinetic-energy cutoff     =      60.0000  Ry
     charge density cutoff     =     400.0000  Ry
     scf convergence threshold =      1.0E-12
     mixing beta               =       0.7000
     number of iterations used =            8  plain     mixing
     Exchange-correlation= SLA  PW   PSX  PSC
                           (   1   4  10   8   0   0   0)

     GPU acceleration is ACTIVE.  1 visible GPUs per MPI rank


     GPU used by master process:

        Device Number: 0
        Device name: NVIDIA B200
        Compute capability : 100
        Ratio of single to double precision performance  : 16
        Memory Clock Rate (KHz): 3996000
        Memory Bus Width (bits): 7680
        Peak Memory Bandwidth (GB/s): ******

     celldm(1)=  10.264219  celldm(2)=   0.000000  celldm(3)=   0.000000
     celldm(4)=   0.000000  celldm(5)=   0.000000  celldm(6)=   0.000000

     crystal axes: (cart. coord. in units of alat)
               a(1) = (   0.481730   0.278127   0.831013 )  
               a(2) = (  -0.481730   0.278127   0.831013 )  
               a(3) = (   0.000000  -0.556254   0.831013 )  

     reciprocal axes: (cart. coord. in units 2 pi/alat)
               b(1) = (  1.037926  0.599247  0.401117 )  
               b(2) = ( -1.037926  0.599247  0.401117 )  
               b(3) = (  0.000000 -1.198494  0.401117 )  


     PseudoPot. # 1 for Li read from file:
     /home/qhossain/SSSP_1.3.0_PBEsol_efficiency/li_pbesol_v1.4.uspp.F.UPF
     MD5 check sum: aa28d9aeea6a965f2dc95ee9517b3536
     Pseudo is Ultrasoft, Zval =  3.0
     Generated by new atomic code, or converted to UPF format
     Using radial grid of  751 points,  5 beta functions with: 
                l(1) =   0
                l(2) =   0
                l(3) =   0
                l(4) =   1
                l(5) =   1
     Q(r) pseudized with 10 coefficients,  rinner =    1.150   1.150   1.150


     PseudoPot. # 2 for O  read from file:
     /home/qhossain/SSSP_1.3.0_PBEsol_efficiency/O.pbesol-n-kjpaw_psl.0.1.UPF
     MD5 check sum: 81d73d1479e654e5638b0319f0d6c2c7
     Pseudo is Projector augmented-wave + core cor, Zval =  6.0
     Generated using "atomic" code by A. Dal Corso  v.6.0 svn rev. 13079
     Shape of augmentation charge: BESSEL
     Using radial grid of 1095 points,  4 beta functions with: 
                l(1) =   0
                l(2) =   0
                l(3) =   1
                l(4) =   1
     Q(r) pseudized with 0 coefficients 


     PseudoPot. # 3 for Nb read from file:
     /home/qhossain/SSSP_1.3.0_PBEsol_efficiency/Nb.pbesol-spn-kjpaw_psl.0.3.0.UPF
     MD5 check sum: 3501bca1474143575298708b2d32ca28
     Pseudo is Projector augmented-wave + core cor, Zval = 13.0
     Generated using "atomic" code by A. Dal Corso  v.6.0 svn rev. 13079
     Shape of augmentation charge: PSQ
     Using radial grid of 1227 points,  6 beta functions with: 
                l(1) =   0
                l(2) =   0
                l(3) =   1
                l(4) =   1
                l(5) =   2
                l(6) =   2
     Q(r) pseudized with 0 coefficients 


     atomic species   valence    mass     pseudopotential
     Li                3.00     6.94000     Li( 1.00)
     O                 6.00    15.99900     O ( 1.00)
     Nb               13.00    92.90637     Nb( 1.00)

      6 Sym. Ops. (no inversion) found ( 3 have fractional translation)


                                    s                        frac. trans.

      isym =  1     identity                                     

 cryst.   s( 1) = (     1          0          0      )
                  (     0          1          0      )
                  (     0          0          1      )

 cart.    s( 1) = (  1.0000000  0.0000000 -0.0000000 )
                  ( -0.0000000  1.0000000  0.0000000 )
                  (  0.0000000 -0.0000000  1.0000000 )


      isym =  2     120 deg rotation - cryst. axis [0,0,1]       

 cryst.   s( 2) = (     0          1          0      )
                  (     0          0          1      )
                  (     1          0          0      )

 cart.    s( 2) = ( -0.5000000 -0.8660254 -0.0000000 )
                  (  0.8660254 -0.5000000 -0.0000000 )
                  (  0.0000000  0.0000000  1.0000000 )


      isym =  3     120 deg rotation - cryst. axis [0,0,-1]      

 cryst.   s( 3) = (     0          0          1      )
                  (     1          0          0      )
                  (     0          1          0      )

 cart.    s( 3) = ( -0.5000000  0.8660254  0.0000000 )
                  ( -0.8660254 -0.5000000 -0.0000000 )
                  ( -0.0000000  0.0000000  1.0000000 )


      isym =  4     inv. 180 deg rotation - cart. axis [1,0,0]   

 cryst.   s( 4) = (     0          1          0      )    f =(  0.5000000 )
                  (     1          0          0      )       (  0.5000000 )
                  (     0          0          1      )       (  0.5000000 )

 cart.    s( 4) = ( -1.0000000  0.0000000 -0.0000000 )    f =( -0.0000000 )
                  ( -0.0000000  1.0000000  0.0000000 )       ( -0.0000000 )
                  ( -0.0000000 -0.0000000  1.0000000 )       (  1.2465189 )


      isym =  5     inv. 180 deg rotation - cryst. axis [0,1,0]  

 cryst.   s( 5) = (     1          0          0      )    f =(  0.5000000 )
                  (     0          0          1      )       (  0.5000000 )
                  (     0          1          0      )       (  0.5000000 )

 cart.    s( 5) = (  0.5000000  0.8660254  0.0000000 )    f =(  0.0000000 )
                  (  0.8660254 -0.5000000 -0.0000000 )       ( -0.0000000 )
                  (  0.0000000  0.0000000  1.0000000 )       (  1.2465189 )


      isym =  6     inv. 180 deg rotation - cryst. axis [1,1,0]  

 cryst.   s( 6) = (     0          0          1      )    f =(  0.5000000 )
                  (     0          1          0      )       (  0.5000000 )
                  (     1          0          0      )       (  0.5000000 )

 cart.    s( 6) = (  0.5000000 -0.8660254 -0.0000000 )    f =( -0.0000000 )
                  ( -0.8660254 -0.5000000 -0.0000000 )       ( -0.0000000 )
                  (  0.0000000  0.0000000  1.0000000 )       (  1.2465189 )


   Cartesian axes

     site n.     atom                  positions (alat units)
         1        Li     tau(   1) = (  -0.0000000  -0.0000000   1.9531179  )
         2        Li     tau(   2) = (  -0.0000000  -0.0000000   0.7065991  )
         3        O      tau(   3) = (  -0.3087796  -0.0393813   1.4113187  )
         4        O      tau(   4) = (   0.1884951  -0.2477203   1.4113187  )
         5        O      tau(   5) = (   0.1202846   0.2871017   1.4113187  )
         6        O      tau(   6) = (   0.2932347   0.0304065   0.9958124  )
         7        O      tau(   7) = (  -0.1729501   0.2387455   0.9958124  )
         8        O      tau(   8) = (  -0.1202846  -0.2691520   0.9958124  )
         9        Nb     tau(   9) = (   0.0000000  -0.0000000   1.2492017  )
        10        Nb     tau(  10) = (  -0.0000000  -0.0000000   0.0026828  )

   Crystallographic axes

     site n.     atom                  positions (cryst. coord.)
         1        Li     tau(   1) = (  0.7834289  0.7834289  0.7834289  )
         2        Li     tau(   2) = (  0.2834289  0.2834289  0.2834289  )
         3        O      tau(   3) = (  0.2220144  0.8629954  0.6133023  )
         4        O      tau(   4) = (  0.6133023  0.2220144  0.8629954  )
         5        O      tau(   5) = (  0.8629954  0.6133023  0.2220144  )
         6        O      tau(   6) = (  0.7220144  0.1133023  0.3629954  )
         7        O      tau(   7) = (  0.3629954  0.7220144  0.1133023  )
         8        O      tau(   8) = (  0.1133023  0.3629954  0.7220144  )
         9        Nb     tau(   9) = (  0.5010761  0.5010761  0.5010761  )
        10        Nb     tau(  10) = (  0.0010761  0.0010761  0.0010761  )

     number of k points=    32
                       cart. coord. in units 2pi/alat
        k(    1) = (   0.0000000   0.0000000   0.0000000), wk =   0.0092593
        k(    2) = (   0.0000000  -0.1997490   0.0668528), wk =   0.0555556
        k(    3) = (   0.0000000  -0.3994980   0.1337057), wk =   0.0555556
        k(    4) = (  -0.0000000   0.5992470  -0.2005585), wk =   0.0277778
        k(    5) = (  -0.1729877  -0.0998745   0.1337057), wk =   0.0555556
        k(    6) = (  -0.1729877  -0.2996235   0.2005585), wk =   0.1111111
        k(    7) = (  -0.1729877   0.6991215  -0.1337057), wk =   0.1111111
        k(    8) = (  -0.1729877   0.4993725  -0.0668528), wk =   0.1111111
        k(    9) = (  -0.1729877   0.2996235   0.0000000), wk =   0.0555556
        k(   10) = (  -0.3459754  -0.1997490   0.2674114), wk =   0.0555556
        k(   11) = (  -0.3459754   0.7989960  -0.0668528), wk =   0.1111111
        k(   12) = (  -0.3459754   0.5992470   0.0000000), wk =   0.0555556
        k(   13) = (   0.5189631   0.2996235  -0.4011171), wk =   0.0277778
        k(   14) = (  -0.0000000  -0.0000000   0.2005585), wk =   0.0185185
        k(   15) = (  -0.0000000  -0.1997490   0.2674114), wk =   0.0555556
        k(   16) = (  -0.0000000   0.7989960  -0.0668528), wk =   0.0555556
        k(   17) = (  -0.0000000   0.5992470   0.0000000), wk =   0.0555556
        k(   18) = (  -0.0000000   0.3994980   0.0668528), wk =   0.0555556
        k(   19) = (  -0.1729877  -0.0998745   0.3342642), wk =   0.0555556
        k(   20) = (  -0.1729877   0.8988705   0.0000000), wk =   0.1111111
        k(   21) = (  -0.1729877   0.6991215   0.0668528), wk =   0.1111111
        k(   22) = (  -0.1729877   0.4993725   0.1337057), wk =   0.1111111
        k(   23) = (   0.6919509   0.3994980  -0.3342642), wk =   0.0555556
        k(   24) = (   0.6919509   0.1997490  -0.2674114), wk =   0.1111111
        k(   25) = (   0.6919509  -0.0000000  -0.2005585), wk =   0.0555556
        k(   26) = (   0.5189631   0.2996235  -0.2005585), wk =   0.0555556
        k(   27) = (  -0.0000000  -0.0000000   0.4011171), wk =   0.0185185
        k(   28) = (  -0.0000000   0.9987450   0.0668528), wk =   0.0555556
        k(   29) = (  -0.0000000   0.7989960   0.1337057), wk =   0.0555556
        k(   30) = (   0.8649386   0.4993725  -0.2674114), wk =   0.0555556
        k(   31) = (   0.8649386   0.2996235  -0.2005585), wk =   0.0555556
        k(   32) = (  -0.0000000   0.0000000  -0.6016756), wk =   0.0092593

                       cryst. coord.
        k(    1) = (   0.0000000   0.0000000   0.0000000), wk =   0.0092593
        k(    2) = (   0.0000000   0.0000000   0.1666667), wk =   0.0555556
        k(    3) = (   0.0000000   0.0000000   0.3333333), wk =   0.0555556
        k(    4) = (   0.0000000   0.0000000  -0.5000000), wk =   0.0277778
        k(    5) = (   0.0000000   0.1666667   0.1666667), wk =   0.0555556
        k(    6) = (   0.0000000   0.1666667   0.3333333), wk =   0.1111111
        k(    7) = (   0.0000000   0.1666667  -0.5000000), wk =   0.1111111
        k(    8) = (   0.0000000   0.1666667  -0.3333333), wk =   0.1111111
        k(    9) = (   0.0000000   0.1666667  -0.1666667), wk =   0.0555556
        k(   10) = (   0.0000000   0.3333333   0.3333333), wk =   0.0555556
        k(   11) = (   0.0000000   0.3333333  -0.5000000), wk =   0.1111111
        k(   12) = (   0.0000000   0.3333333  -0.3333333), wk =   0.0555556
        k(   13) = (   0.0000000  -0.5000000  -0.5000000), wk =   0.0277778
        k(   14) = (   0.1666667   0.1666667   0.1666667), wk =   0.0185185
        k(   15) = (   0.1666667   0.1666667   0.3333333), wk =   0.0555556
        k(   16) = (   0.1666667   0.1666667  -0.5000000), wk =   0.0555556
        k(   17) = (   0.1666667   0.1666667  -0.3333333), wk =   0.0555556
        k(   18) = (   0.1666667   0.1666667  -0.1666667), wk =   0.0555556
        k(   19) = (   0.1666667   0.3333333   0.3333333), wk =   0.0555556
        k(   20) = (   0.1666667   0.3333333  -0.5000000), wk =   0.1111111
        k(   21) = (   0.1666667   0.3333333  -0.3333333), wk =   0.1111111
        k(   22) = (   0.1666667   0.3333333  -0.1666667), wk =   0.1111111
        k(   23) = (   0.1666667  -0.5000000  -0.5000000), wk =   0.0555556
        k(   24) = (   0.1666667  -0.5000000  -0.3333333), wk =   0.1111111
        k(   25) = (   0.1666667  -0.5000000  -0.1666667), wk =   0.0555556
        k(   26) = (   0.1666667  -0.3333333  -0.3333333), wk =   0.0555556
        k(   27) = (   0.3333333   0.3333333   0.3333333), wk =   0.0185185
        k(   28) = (   0.3333333   0.3333333  -0.5000000), wk =   0.0555556
        k(   29) = (   0.3333333   0.3333333  -0.3333333), wk =   0.0555556
        k(   30) = (   0.3333333  -0.5000000  -0.5000000), wk =   0.0555556
        k(   31) = (   0.3333333  -0.5000000  -0.3333333), wk =   0.0555556
        k(   32) = (  -0.5000000  -0.5000000  -0.5000000), wk =   0.0092593

     Dense  grid:    97681 G-vectors     FFT dimensions: (  72,  72,  72)

     Smooth grid:    45397 G-vectors     FFT dimensions: (  54,  54,  54)

     Dynamical RAM for                 wfc:       2.94 MB

     Dynamical RAM for     wfc (w. buffer):      97.07 MB

     Dynamical RAM for           str. fact:       4.47 MB

     Dynamical RAM for           local pot:       0.00 MB

     Dynamical RAM for          nlocal pot:       8.82 MB

     Dynamical RAM for                qrad:       4.82 MB

     Dynamical RAM for          rho,v,vnew:      13.01 MB

     Dynamical RAM for               rhoin:       4.34 MB

     Dynamical RAM for            rho*nmix:      23.85 MB

     Dynamical RAM for           G-vectors:       5.94 MB

     Dynamical RAM for          h,s,v(r/c):       0.21 MB

     Dynamical RAM for          <psi|beta>:       0.05 MB

     Dynamical RAM for                 psi:       5.88 MB

     Dynamical RAM for                hpsi:       5.88 MB

     Dynamical RAM for                spsi:       5.88 MB

     Dynamical RAM for      wfcinit/wfcrot:       5.91 MB

     Dynamical RAM for           addusdens:     286.17 MB

     Dynamical RAM for          addusforce:     301.85 MB

     Dynamical RAM for         addusstress:     299.59 MB

     Estimated static dynamical RAM per process >     158.67 MB

     Estimated max dynamical RAM per process >     484.37 MB

     Check: negative core charge=   -0.000005

     Initial potential from superposition of free atoms

     starting charge      67.0945, renormalised to      68.0000
     Starting wfcs are   54 randomized atomic wfcs
     Checking if some PAW data can be deallocated... 

     total cpu time spent up to now is        1.2 secs

     per-process dynamical memory:   559.0 Mb

     Self-consistent Calculation
[tb_dev] Currently allocated     1.86E+00 Mbytes, locked:    0 /   3
[tb_pin] Currently allocated     0.00E+00 Mbytes, locked:    0 /   0

     iteration #  1     ecut=    60.00 Ry     beta= 0.70
     Davidson diagonalization with overlap

---- Real-time Memory Report at c_bands before calling an iterative solver
           987 MiB given to the printing process from OS
           545 MiB allocation reported by mallinfo(arena+hblkhd)
       1824152 MiB available memory on the node where the printing process lives
     GPU memory used/free/total (MiB): 2283 / 180358 / 182642
------------------
     ethr =  1.00E-02,  avg # of iterations =  1.0

     total cpu time spent up to now is        1.7 secs

     total energy              =    -934.43254269 Ry
     estimated scf accuracy    <       4.47308929 Ry
[tb_dev] Currently allocated     0.00E+00 Mbytes, locked:    0 /   0
[tb_pin] Currently allocated     0.00E+00 Mbytes, locked:    0 /   0

     iteration #  2     ecut=    60.00 Ry     beta= 0.70
     Davidson diagonalization with overlap

---- Real-time Memory Report at c_bands before calling an iterative solver
          1035 MiB given to the printing process from OS
           621 MiB allocation reported by mallinfo(arena+hblkhd)
       1823751 MiB available memory on the node where the printing process lives
     GPU memory used/free/total (MiB): 2283 / 180358 / 182642
------------------
     ethr =  6.58E-03,  avg # of iterations =  8.6

     total cpu time spent up to now is        2.8 secs

     total energy              =    -933.71061095 Ry
     estimated scf accuracy    <      16.62093237 Ry
[tb_dev] Currently allocated     0.00E+00 Mbytes, locked:    0 /   0
[tb_pin] Currently allocated     0.00E+00 Mbytes, locked:    0 /   0

     iteration #  3     ecut=    60.00 Ry     beta= 0.70
     Davidson diagonalization with overlap

---- Real-time Memory Report at c_bands before calling an iterative solver
          1040 MiB given to the printing process from OS
           625 MiB allocation reported by mallinfo(arena+hblkhd)
       1824111 MiB available memory on the node where the printing process lives
     GPU memory used/free/total (MiB): 2285 / 180356 / 182642
------------------
     ethr =  6.58E-03,  avg # of iterations =  6.2

     total cpu time spent up to now is        3.6 secs

     total energy              =    -936.71657944 Ry
     estimated scf accuracy    <       0.05390590 Ry
[tb_dev] Currently allocated     0.00E+00 Mbytes, locked:    0 /   0
[tb_pin] Currently allocated     0.00E+00 Mbytes, locked:    0 /   0

     iteration #  4     ecut=    60.00 Ry     beta= 0.70
     Davidson diagonalization with overlap

---- Real-time Memory Report at c_bands before calling an iterative solver
          1043 MiB given to the printing process from OS
           627 MiB allocation reported by mallinfo(arena+hblkhd)
       1824451 MiB available memory on the node where the printing process lives
     GPU memory used/free/total (MiB): 2285 / 180356 / 182642
------------------
     ethr =  7.93E-05,  avg # of iterations =  8.6

     total cpu time spent up to now is        4.7 secs

     total energy              =    -936.68354306 Ry
     estimated scf accuracy    <       0.30999329 Ry
[tb_dev] Currently allocated     0.00E+00 Mbytes, locked:    0 /   0
[tb_pin] Currently allocated     0.00E+00 Mbytes, locked:    0 /   0

     iteration #  5     ecut=    60.00 Ry     beta= 0.70
     Davidson diagonalization with overlap

---- Real-time Memory Report at c_bands before calling an iterative solver
          1046 MiB given to the printing process from OS
           628 MiB allocation reported by mallinfo(arena+hblkhd)
       1824814 MiB available memory on the node where the printing process lives
     GPU memory used/free/total (MiB): 2285 / 180356 / 182642
------------------
     ethr =  7.93E-05,  avg # of iterations =  8.8

     total cpu time spent up to now is        5.8 secs

     total energy              =    -936.78352782 Ry
     estimated scf accuracy    <       0.63331710 Ry
[tb_dev] Currently allocated     0.00E+00 Mbytes, locked:    0 /   0
[tb_pin] Currently allocated     0.00E+00 Mbytes, locked:    0 /   0

     iteration #  6     ecut=    60.00 Ry     beta= 0.70
     Davidson diagonalization with overlap

---- Real-time Memory Report at c_bands before calling an iterative solver
          1048 MiB given to the printing process from OS
           629 MiB allocation reported by mallinfo(arena+hblkhd)
       1823758 MiB available memory on the node where the printing process lives
     GPU memory used/free/total (MiB): 2285 / 180356 / 182642
------------------
     ethr =  7.93E-05,  avg # of iterations =  6.2

     total cpu time spent up to now is        6.6 secs

     total energy              =    -936.81769171 Ry
     estimated scf accuracy    <       0.06074746 Ry
[tb_dev] Currently allocated     0.00E+00 Mbytes, locked:    0 /   0
[tb_pin] Currently allocated     0.00E+00 Mbytes, locked:    0 /   0

     iteration #  7     ecut=    60.00 Ry     beta= 0.70
     Davidson diagonalization with overlap

---- Real-time Memory Report at c_bands before calling an iterative solver
          1049 MiB given to the printing process from OS
           631 MiB allocation reported by mallinfo(arena+hblkhd)
       1824111 MiB available memory on the node where the printing process lives
     GPU memory used/free/total (MiB): 2285 / 180356 / 182642
------------------
     ethr =  7.93E-05,  avg # of iterations =  5.0

     total cpu time spent up to now is        7.3 secs

     total energy              =    -936.83270716 Ry
     estimated scf accuracy    <       0.00003010 Ry
[tb_dev] Currently allocated     0.00E+00 Mbytes, locked:    0 /   0
[tb_pin] Currently allocated     0.00E+00 Mbytes, locked:    0 /   0

     iteration #  8     ecut=    60.00 Ry     beta= 0.70
     Davidson diagonalization with overlap

---- Real-time Memory Report at c_bands before calling an iterative solver
          1049 MiB given to the printing process from OS
           632 MiB allocation reported by mallinfo(arena+hblkhd)
       1824487 MiB available memory on the node where the printing process lives
     GPU memory used/free/total (MiB): 2285 / 180356 / 182642
------------------
     ethr =  4.43E-08,  avg # of iterations = 16.9

     total cpu time spent up to now is        9.2 secs

     total energy              =    -936.83339120 Ry
     estimated scf accuracy    <       0.00411455 Ry
[tb_dev] Currently allocated     0.00E+00 Mbytes, locked:    0 /   0
[tb_pin] Currently allocated     0.00E+00 Mbytes, locked:    0 /   0

     iteration #  9     ecut=    60.00 Ry     beta= 0.70
     Davidson diagonalization with overlap

---- Real-time Memory Report at c_bands before calling an iterative solver
          1056 MiB given to the printing process from OS
           624 MiB allocation reported by mallinfo(arena+hblkhd)
       1824221 MiB available memory on the node where the printing process lives
     GPU memory used/free/total (MiB): 2285 / 180356 / 182642
------------------
     ethr =  4.43E-08,  avg # of iterations =  9.9

     total cpu time spent up to now is       10.4 secs

     total energy              =    -936.83355834 Ry
     estimated scf accuracy    <       0.00030877 Ry
[tb_dev] Currently allocated     0.00E+00 Mbytes, locked:    0 /   0
[tb_pin] Currently allocated     0.00E+00 Mbytes, locked:    0 /   0

     iteration # 10     ecut=    60.00 Ry     beta= 0.70
     Davidson diagonalization with overlap

---- Real-time Memory Report at c_bands before calling an iterative solver
          1056 MiB given to the printing process from OS
           636 MiB allocation reported by mallinfo(arena+hblkhd)
       1824179 MiB available memory on the node where the printing process lives
     GPU memory used/free/total (MiB): 2285 / 180356 / 182642
------------------
     ethr =  4.43E-08,  avg # of iterations =  9.0

     total cpu time spent up to now is       11.5 secs

     total energy              =    -936.83370122 Ry
     estimated scf accuracy    <       0.00024807 Ry
[tb_dev] Currently allocated     0.00E+00 Mbytes, locked:    0 /   0
[tb_pin] Currently allocated     0.00E+00 Mbytes, locked:    0 /   0

     iteration # 11     ecut=    60.00 Ry     beta= 0.70
     Davidson diagonalization with overlap

---- Real-time Memory Report at c_bands before calling an iterative solver
          1056 MiB given to the printing process from OS
           636 MiB allocation reported by mallinfo(arena+hblkhd)
       1824533 MiB available memory on the node where the printing process lives
     GPU memory used/free/total (MiB): 2285 / 180356 / 182642
------------------
     ethr =  4.43E-08,  avg # of iterations =  3.9

     total cpu time spent up to now is       12.1 secs

     total energy              =    -936.83366732 Ry
     estimated scf accuracy    <       0.00010915 Ry
[tb_dev] Currently allocated     0.00E+00 Mbytes, locked:    0 /   0
[tb_pin] Currently allocated     0.00E+00 Mbytes, locked:    0 /   0

     iteration # 12     ecut=    60.00 Ry     beta= 0.70
     Davidson diagonalization with overlap

---- Real-time Memory Report at c_bands before calling an iterative solver
          1056 MiB given to the printing process from OS
           636 MiB allocation reported by mallinfo(arena+hblkhd)
       1824530 MiB available memory on the node where the printing process lives
     GPU memory used/free/total (MiB): 2285 / 180356 / 182642
------------------
     ethr =  4.43E-08,  avg # of iterations =  6.0

     total cpu time spent up to now is       12.9 secs

     total energy              =    -936.83369205 Ry
     estimated scf accuracy    <          9.7E-09 Ry
[tb_dev] Currently allocated     0.00E+00 Mbytes, locked:    0 /   0
[tb_pin] Currently allocated     0.00E+00 Mbytes, locked:    0 /   0

     iteration # 13     ecut=    60.00 Ry     beta= 0.70
     Davidson diagonalization with overlap

---- Real-time Memory Report at c_bands before calling an iterative solver
          1056 MiB given to the printing process from OS
           636 MiB allocation reported by mallinfo(arena+hblkhd)
       1824916 MiB available memory on the node where the printing process lives
     GPU memory used/free/total (MiB): 2285 / 180356 / 182642
------------------
     c_bands:  1 eigenvalues not converged
     c_bands:  2 eigenvalues not converged
     c_bands:  1 eigenvalues not converged
     ethr =  1.42E-11,  avg # of iterations = 18.2

     total cpu time spent up to now is       14.9 secs

     total energy              =    -936.83369268 Ry
     estimated scf accuracy    <       0.00000104 Ry
[tb_dev] Currently allocated     0.00E+00 Mbytes, locked:    0 /   0
[tb_pin] Currently allocated     0.00E+00 Mbytes, locked:    0 /   0

     iteration # 14     ecut=    60.00 Ry     beta= 0.70
     Davidson diagonalization with overlap

---- Real-time Memory Report at c_bands before calling an iterative solver
          1056 MiB given to the printing process from OS
           636 MiB allocation reported by mallinfo(arena+hblkhd)
       1824209 MiB available memory on the node where the printing process lives
     GPU memory used/free/total (MiB): 2285 / 180356 / 182642
------------------
     ethr =  1.42E-11,  avg # of iterations =  7.2

     total cpu time spent up to now is       15.8 secs

     total energy              =    -936.83369254 Ry
     estimated scf accuracy    <       0.00000046 Ry
[tb_dev] Currently allocated     0.00E+00 Mbytes, locked:    0 /   0
[tb_pin] Currently allocated     0.00E+00 Mbytes, locked:    0 /   0

     iteration # 15     ecut=    60.00 Ry     beta= 0.70
     Davidson diagonalization with overlap

---- Real-time Memory Report at c_bands before calling an iterative solver
          1056 MiB given to the printing process from OS
           636 MiB allocation reported by mallinfo(arena+hblkhd)
       1824598 MiB available memory on the node where the printing process lives
     GPU memory used/free/total (MiB): 2285 / 180356 / 182642
------------------
     ethr =  1.42E-11,  avg # of iterations =  9.1

     total cpu time spent up to now is       16.9 secs

     total energy              =    -936.83369260 Ry
     estimated scf accuracy    <          7.7E-09 Ry
[tb_dev] Currently allocated     0.00E+00 Mbytes, locked:    0 /   0
[tb_pin] Currently allocated     0.00E+00 Mbytes, locked:    0 /   0

     iteration # 16     ecut=    60.00 Ry     beta= 0.70
     Davidson diagonalization with overlap

---- Real-time Memory Report at c_bands before calling an iterative solver
          1056 MiB given to the printing process from OS
           636 MiB allocation reported by mallinfo(arena+hblkhd)
       1824999 MiB available memory on the node where the printing process lives
     GPU memory used/free/total (MiB): 2285 / 180356 / 182642
------------------
     ethr =  1.14E-11,  avg # of iterations =  5.6

     total cpu time spent up to now is       17.7 secs

     total energy              =    -936.83369261 Ry
     estimated scf accuracy    <          5.4E-10 Ry
[tb_dev] Currently allocated     0.00E+00 Mbytes, locked:    0 /   0
[tb_pin] Currently allocated     0.00E+00 Mbytes, locked:    0 /   0

     iteration # 17     ecut=    60.00 Ry     beta= 0.70
     Davidson diagonalization with overlap

---- Real-time Memory Report at c_bands before calling an iterative solver
          1056 MiB given to the printing process from OS
           636 MiB allocation reported by mallinfo(arena+hblkhd)
       1824242 MiB available memory on the node where the printing process lives
     GPU memory used/free/total (MiB): 2285 / 180356 / 182642
------------------
     ethr =  7.93E-13,  avg # of iterations =  6.0

     total cpu time spent up to now is       18.5 secs

     total energy              =    -936.83369261 Ry
     estimated scf accuracy    <          2.4E-09 Ry
[tb_dev] Currently allocated     0.00E+00 Mbytes, locked:    0 /   0
[tb_pin] Currently allocated     0.00E+00 Mbytes, locked:    0 /   0

     iteration # 18     ecut=    60.00 Ry     beta= 0.70
     Davidson diagonalization with overlap

---- Real-time Memory Report at c_bands before calling an iterative solver
          1056 MiB given to the printing process from OS
           636 MiB allocation reported by mallinfo(arena+hblkhd)
       1823886 MiB available memory on the node where the printing process lives
     GPU memory used/free/total (MiB): 2285 / 180356 / 182642
------------------
     ethr =  7.93E-13,  avg # of iterations =  4.3

     total cpu time spent up to now is       19.1 secs

     total energy              =    -936.83369261 Ry
     estimated scf accuracy    <          4.6E-10 Ry
[tb_dev] Currently allocated     0.00E+00 Mbytes, locked:    0 /   0
[tb_pin] Currently allocated     0.00E+00 Mbytes, locked:    0 /   0

     iteration # 19     ecut=    60.00 Ry     beta= 0.70
     Davidson diagonalization with overlap

---- Real-time Memory Report at c_bands before calling an iterative solver
          1056 MiB given to the printing process from OS
           636 MiB allocation reported by mallinfo(arena+hblkhd)
       1824272 MiB available memory on the node where the printing process lives
     GPU memory used/free/total (MiB): 2285 / 180356 / 182642
------------------
     ethr =  6.75E-13,  avg # of iterations =  5.4

     total cpu time spent up to now is       19.9 secs

     total energy              =    -936.83369261 Ry
     estimated scf accuracy    <          1.0E-10 Ry
[tb_dev] Currently allocated     0.00E+00 Mbytes, locked:    0 /   0
[tb_pin] Currently allocated     0.00E+00 Mbytes, locked:    0 /   0

     iteration # 20     ecut=    60.00 Ry     beta= 0.70
     Davidson diagonalization with overlap

---- Real-time Memory Report at c_bands before calling an iterative solver
          1056 MiB given to the printing process from OS
           636 MiB allocation reported by mallinfo(arena+hblkhd)
       1824663 MiB available memory on the node where the printing process lives
     GPU memory used/free/total (MiB): 2285 / 180356 / 182642
------------------
     ethr =  1.51E-13,  avg # of iterations =  2.1

     total cpu time spent up to now is       20.3 secs

     total energy              =    -936.83369261 Ry
     estimated scf accuracy    <          8.1E-11 Ry
[tb_dev] Currently allocated     0.00E+00 Mbytes, locked:    0 /   0
[tb_pin] Currently allocated     0.00E+00 Mbytes, locked:    0 /   0

     iteration # 21     ecut=    60.00 Ry     beta= 0.70
     Davidson diagonalization with overlap

---- Real-time Memory Report at c_bands before calling an iterative solver
          1056 MiB given to the printing process from OS
           636 MiB allocation reported by mallinfo(arena+hblkhd)
       1824636 MiB available memory on the node where the printing process lives
     GPU memory used/free/total (MiB): 2285 / 180356 / 182642
------------------
     ethr =  1.19E-13,  avg # of iterations =  1.5

     total cpu time spent up to now is       20.8 secs

     total energy              =    -936.83369261 Ry
     estimated scf accuracy    <          3.7E-11 Ry
[tb_dev] Currently allocated     0.00E+00 Mbytes, locked:    0 /   0
[tb_pin] Currently allocated     0.00E+00 Mbytes, locked:    0 /   0

     iteration # 22     ecut=    60.00 Ry     beta= 0.70
     Davidson diagonalization with overlap

---- Real-time Memory Report at c_bands before calling an iterative solver
          1056 MiB given to the printing process from OS
           636 MiB allocation reported by mallinfo(arena+hblkhd)
       1824612 MiB available memory on the node where the printing process lives
     GPU memory used/free/total (MiB): 2285 / 180356 / 182642
------------------
     ethr =  1.00E-13,  avg # of iterations =  1.4

     total cpu time spent up to now is       21.2 secs

     total energy              =    -936.83369261 Ry
     estimated scf accuracy    <          1.6E-11 Ry
[tb_dev] Currently allocated     0.00E+00 Mbytes, locked:    0 /   0
[tb_pin] Currently allocated     0.00E+00 Mbytes, locked:    0 /   0

     iteration # 23     ecut=    60.00 Ry     beta= 0.70
     Davidson diagonalization with overlap

---- Real-time Memory Report at c_bands before calling an iterative solver
          1056 MiB given to the printing process from OS
           636 MiB allocation reported by mallinfo(arena+hblkhd)
       1824744 MiB available memory on the node where the printing process lives
     GPU memory used/free/total (MiB): 2285 / 180356 / 182642
------------------
     ethr =  1.00E-13,  avg # of iterations =  2.6

     total cpu time spent up to now is       21.7 secs

     End of self-consistent calculation

          k = 0.0000 0.0000 0.0000 (  5667 PWs)   bands (ev):

   -47.0463 -47.0312 -34.8132 -34.8104 -23.3677 -23.3677 -23.3056 -23.2056
   -23.2056 -23.1318  -9.7865  -9.1172  -9.1172  -8.1267  -8.0005  -8.0005
     2.6485   2.6485   2.8423   2.8715   2.8715   3.8039   4.9705   4.9705
     5.0152   5.7943   6.3837   6.3837   6.4892   6.4892   6.5928   6.6889
     7.0677   7.0677

     occupation numbers 
     1.0000   1.0000   1.0000   1.0000   1.0000   1.0000   1.0000   1.0000
     1.0000   1.0000   1.0000   1.0000   1.0000   1.0000   1.0000   1.0000
     1.0000   1.0000   1.0000   1.0000   1.0000   1.0000   1.0000   1.0000
     1.0000   1.0000   1.0000   1.0000   1.0000   1.0000   1.0000   1.0000
     1.0000   1.0000

          k = 0.0000-0.1997 0.0669 (  5664 PWs)   bands (ev):

   -47.0453 -47.0322 -34.8130 -34.8106 -23.3586 -23.3573 -23.2937 -23.2181
   -23.2170 -23.1434  -9.6781  -9.0568  -9.0516  -8.2111  -8.1074  -8.0865
     2.5973   2.6799   2.9806   3.1442   3.1452   3.8566   4.6537   4.7783
     4.8010   5.7826   6.1193   6.3532   6.3557   6.6262   6.6749   6.7786
     6.9501   7.0186

     occupation numbers 
     1.0000   1.0000   1.0000   1.0000   1.0000   1.0000   1.0000   1.0000
     1.0000   1.0000   1.0000   1.0000   1.0000   1.0000   1.0000   1.0000
     1.0000   1.0000   1.0000   1.0000   1.0000   1.0000   1.0000   1.0000
     1.0000   1.0000   1.0000   1.0000   1.0000   1.0000   1.0000   1.0000
     1.0000   1.0000

          k = 0.0000-0.3995 0.1337 (  5674 PWs)   bands (ev):

   -47.0425 -47.0350 -34.8126 -34.8111 -23.3322 -23.3287 -23.2616 -23.2509
   -23.2477 -23.1749  -9.3783  -8.8960  -8.8709  -8.4839  -8.3405  -8.3070
     2.7544   2.8928   3.2657   3.6634   3.6942   3.9622   3.9888   4.3936
     4.5648   5.3485   5.5703   5.8898   6.5140   6.7195   6.7195   6.8057
     6.9244   7.0374

     occupation numbers 
     1.0000   1.0000   1.0000   1.0000   1.0000   1.0000   1.0000   1.0000
     1.0000   1.0000   1.0000   1.0000   1.0000   1.0000   1.0000   1.0000
     1.0000   1.0000   1.0000   1.0000   1.0000   1.0000   1.0000   1.0000
     1.0000   1.0000   1.0000   1.0000   1.0000   1.0000   1.0000   1.0000
     1.0000   1.0000

          k =-0.0000 0.5992-0.2006 (  5678 PWs)   bands (ev):

   -47.0387 -47.0387 -34.8119 -34.8119 -23.2932 -23.2932 -23.2888 -23.2888
   -23.2181 -23.2181  -8.9730  -8.9730  -8.6416  -8.6416  -8.5450  -8.5450
     3.1124   3.1124   3.3669   3.3669   3.8874   3.8874   4.3528   4.3528
     4.7848   4.7848   5.2134   5.2134   6.7475   6.7475   6.8295   6.8295
     6.9198   6.9198

     occupation numbers 
     1.0000   1.0000   1.0000   1.0000   1.0000   1.0000   1.0000   1.0000
     1.0000   1.0000   1.0000   1.0000   1.0000   1.0000   1.0000   1.0000
     1.0000   1.0000   1.0000   1.0000   1.0000   1.0000   1.0000   1.0000
     1.0000   1.0000   1.0000   1.0000   1.0000   1.0000   1.0000   1.0000
     1.0000   1.0000

          k =-0.1730-0.0999 0.1337 (  5678 PWs)   bands (ev):

   -47.0450 -47.0325 -34.8130 -34.8106 -23.3704 -23.3490 -23.2823 -23.2424
   -23.2036 -23.1408  -9.6680  -9.0953  -8.9601  -8.3442  -8.0884  -8.0395
     2.6276   2.6946   2.8659   3.1708   3.2754   4.0063   4.2699   4.9605
     4.9878   5.7820   6.0283   6.2427   6.3978   6.4729   6.5813   6.7494
     6.9804   7.0236

     occupation numbers 
     1.0000   1.0000   1.0000   1.0000   1.0000   1.0000   1.0000   1.0000
     1.0000   1.0000   1.0000   1.0000   1.0000   1.0000   1.0000   1.0000
     1.0000   1.0000   1.0000   1.0000   1.0000   1.0000   1.0000   1.0000
     1.0000   1.0000   1.0000   1.0000   1.0000   1.0000   1.0000   1.0000
     1.0000   1.0000

          k =-0.1730-0.2996 0.2006 (  5660 PWs)   bands (ev):

   -47.0431 -47.0344 -34.8127 -34.8110 -23.3629 -23.3329 -23.2842 -23.2449
   -23.2142 -23.1545  -9.4900  -9.0143  -8.7701  -8.6072  -8.1967  -8.1631
     2.5762   2.8358   3.1973   3.4257   3.5860   3.8013   4.3340   4.5677
     4.9165   5.4841   5.7974   6.1449   6.2558   6.4249   6.5958   6.7934
     6.8784   7.0240

     occupation numbers 
     1.0000   1.0000   1.0000   1.0000   1.0000   1.0000   1.0000   1.0000
     1.0000   1.0000   1.0000   1.0000   1.0000   1.0000   1.0000   1.0000
     1.0000   1.0000   1.0000   1.0000   1.0000   1.0000   1.0000   1.0000
     1.0000   1.0000   1.0000   1.0000   1.0000   1.0000   1.0000   1.0000
     1.0000   1.0000

          k =-0.1730 0.6991-0.1337 (  5667 PWs)   bands (ev):

   -47.0400 -47.0375 -34.8121 -34.8116 -23.3363 -23.3256 -23.3015 -23.2459
   -23.2029 -23.1862  -9.1762  -8.9761  -8.8279  -8.4712  -8.4511  -8.3808
     2.7545   2.9673   3.2034   3.6490   3.8727   3.9355   4.2002   4.4684
     4.6704   5.0897   5.4983   5.8274   6.3485   6.5781   6.6456   6.7264
     6.8946   6.9926

     occupation numbers 
     1.0000   1.0000   1.0000   1.0000   1.0000   1.0000   1.0000   1.0000
     1.0000   1.0000   1.0000   1.0000   1.0000   1.0000   1.0000   1.0000
     1.0000   1.0000   1.0000   1.0000   1.0000   1.0000   1.0000   1.0000
     1.0000   1.0000   1.0000   1.0000   1.0000   1.0000   1.0000   1.0000
     1.0000   1.0000

          k =-0.1730 0.4994-0.0669 (  5672 PWs)   bands (ev):

   -47.0409 -47.0365 -34.8123 -34.8114 -23.3542 -23.2960 -23.2881 -23.2610
   -23.2286 -23.1701  -9.2817  -8.8407  -8.7527  -8.6325  -8.5515  -8.2197
     2.6902   3.1327   3.2518   3.3809   3.5946   4.0171   4.2825   4.4960
     4.7509   5.2101   5.4444   6.0462   6.2706   6.4039   6.7022   6.8401
     6.9117   7.0184

     occupation numbers 
     1.0000   1.0000   1.0000   1.0000   1.0000   1.0000   1.0000   1.0000
     1.0000   1.0000   1.0000   1.0000   1.0000   1.0000   1.0000   1.0000
     1.0000   1.0000   1.0000   1.0000   1.0000   1.0000   1.0000   1.0000
     1.0000   1.0000   1.0000   1.0000   1.0000   1.0000   1.0000   1.0000
     1.0000   1.0000

          k =-0.1730 0.2996 0.0000 (  5680 PWs)   bands (ev):

   -47.0438 -47.0337 -34.8128 -34.8109 -23.3637 -23.3289 -23.2699 -23.2522
   -23.2258 -23.1523  -9.5330  -8.9998  -8.8975  -8.4058  -8.3075  -8.0890
     2.6085   2.8123   3.0906   3.2131   3.6638   3.9683   4.1138   4.4087
     5.0338   5.6338   5.9429   6.1710   6.3787   6.4603   6.6919   6.8018
     6.8704   7.0606

     occupation numbers 
     1.0000   1.0000   1.0000   1.0000   1.0000   1.0000   1.0000   1.0000
     1.0000   1.0000   1.0000   1.0000   1.0000   1.0000   1.0000   1.0000
     1.0000   1.0000   1.0000   1.0000   1.0000   1.0000   1.0000   1.0000
     1.0000   1.0000   1.0000   1.0000   1.0000   1.0000   1.0000   1.0000
     1.0000   1.0000

          k =-0.3460-0.1997 0.2674 (  5675 PWs)   bands (ev):

   -47.0425 -47.0350 -34.8126 -34.8111 -23.3759 -23.3418 -23.3282 -23.2042
   -23.1991 -23.1442  -9.4972  -9.0504  -8.8581  -8.5395  -8.1411  -8.1218
     2.5696   2.7116   2.9652   3.0762   3.7163   4.0287   4.6578   4.8880
     5.2671   5.5425   5.7925   5.9405   6.0452   6.3539   6.4672   6.6854
     6.6883   6.9319

     occupation numbers 
     1.0000   1.0000   1.0000   1.0000   1.0000   1.0000   1.0000   1.0000
     1.0000   1.0000   1.0000   1.0000   1.0000   1.0000   1.0000   1.0000
     1.0000   1.0000   1.0000   1.0000   1.0000   1.0000   1.0000   1.0000
     1.0000   1.0000   1.0000   1.0000   1.0000   1.0000   1.0000   1.0000
     1.0000   1.0000

          k =-0.3460 0.7990-0.0669 (  5674 PWs)   bands (ev):

   -47.0409 -47.0365 -34.8123 -34.8114 -23.3676 -23.3593 -23.3306 -23.2108
   -23.1717 -23.1554  -9.3616  -9.0688  -8.9692  -8.3370  -8.2548  -8.2193
     2.5306   2.6712   2.8766   3.2322   3.9505   4.2987   4.4761   4.9097
     5.1069   5.4892   5.7520   5.8919   6.0469   6.2105   6.4017   6.5850
     6.7385   6.9559

     occupation numbers 
     1.0000   1.0000   1.0000   1.0000   1.0000   1.0000   1.0000   1.0000
     1.0000   1.0000   1.0000   1.0000   1.0000   1.0000   1.0000   1.0000
     1.0000   1.0000   1.0000   1.0000   1.0000   1.0000   1.0000   1.0000
     1.0000   1.0000   1.0000   1.0000   1.0000   1.0000   1.0000   1.0000
     1.0000   1.0000

          k =-0.3460 0.5992 0.0000 (  5670 PWs)   bands (ev):

   -47.0387 -47.0387 -34.8119 -34.8119 -23.3685 -23.3387 -23.2997 -23.2438
   -23.1866 -23.1605  -9.2060  -9.1053  -8.8038  -8.5094  -8.4096  -8.2118
     2.5500   2.7608   3.1749   3.5445   3.8438   3.9094   4.3806   4.7862
     4.9697   5.3380   5.6606   5.8273   6.1848   6.2720   6.4382   6.7377
     6.7889   7.0002

     occupation numbers 
     1.0000   1.0000   1.0000   1.0000   1.0000   1.0000   1.0000   1.0000
     1.0000   1.0000   1.0000   1.0000   1.0000   1.0000   1.0000   1.0000
     1.0000   1.0000   1.0000   1.0000   1.0000   1.0000   1.0000   1.0000
     1.0000   1.0000   1.0000   1.0000   1.0000   1.0000   1.0000   1.0000
     1.0000   1.0000

          k = 0.5190 0.2996-0.4011 (  5688 PWs)   bands (ev):

   -47.0412 -47.0362 -34.8124 -34.8114 -23.3789 -23.3719 -23.3423 -23.1976
   -23.1592 -23.1438  -9.4309  -9.1106  -9.0166  -8.2873  -8.1653  -8.1632
     2.5273   2.5592   2.6952   2.9125   4.2777   4.5289   4.7261   5.0963
     5.2266   5.3153   5.7295   5.8423   6.0046   6.1143   6.4057   6.5564
     6.6214   6.8818

     occupation numbers 
     1.0000   1.0000   1.0000   1.0000   1.0000   1.0000   1.0000   1.0000
     1.0000   1.0000   1.0000   1.0000   1.0000   1.0000   1.0000   1.0000
     1.0000   1.0000   1.0000   1.0000   1.0000   1.0000   1.0000   1.0000
     1.0000   1.0000   1.0000   1.0000   1.0000   1.0000   1.0000   1.0000
     1.0000   1.0000

          k =-0.0000-0.0000 0.2006 (  5712 PWs)   bands (ev):

   -47.0453 -47.0323 -34.8130 -34.8106 -23.3572 -23.3572 -23.2948 -23.2169
   -23.2169 -23.1443  -9.6861  -9.0490  -9.0490  -8.2515  -8.0834  -8.0834
     2.7365   2.7365   2.9989   3.0939   3.0939   3.8925   4.7809   4.7809
     4.8081   5.9112   6.0503   6.0503   6.2998   6.4466   6.4466   6.7294
     7.0941   7.0941

     occupation numbers 
     1.0000   1.0000   1.0000   1.0000   1.0000   1.0000   1.0000   1.0000
     1.0000   1.0000   1.0000   1.0000   1.0000   1.0000   1.0000   1.0000
     1.0000   1.0000   1.0000   1.0000   1.0000   1.0000   1.0000   1.0000
     1.0000   1.0000   1.0000   1.0000   1.0000   1.0000   1.0000   1.0000
     1.0000   1.0000

          k =-0.0000-0.1997 0.2674 (  5671 PWs)   bands (ev):

   -47.0438 -47.0337 -34.8128 -34.8109 -23.3639 -23.3260 -23.2719 -23.2497
   -23.2270 -23.1531  -9.5452  -8.9845  -8.8973  -8.4540  -8.2722  -8.0957
     2.6399   2.8658   3.1836   3.4322   3.5333   4.0343   4.3284   4.3912
     4.8244   5.4234   5.8392   6.1170   6.1767   6.4798   6.6171   6.7049
     6.9793   7.0379

     occupation numbers 
     1.0000   1.0000   1.0000   1.0000   1.0000   1.0000   1.0000   1.0000
     1.0000   1.0000   1.0000   1.0000   1.0000   1.0000   1.0000   1.0000
     1.0000   1.0000   1.0000   1.0000   1.0000   1.0000   1.0000   1.0000
     1.0000   1.0000   1.0000   1.0000   1.0000   1.0000   1.0000   1.0000
     1.0000   1.0000

          k =-0.0000 0.7990-0.0669 (  5657 PWs)   bands (ev):

   -47.0409 -47.0365 -34.8123 -34.8115 -23.3551 -23.2928 -23.2846 -23.2640
   -23.2308 -23.1700  -9.2874  -8.8306  -8.7901  -8.6242  -8.5205  -8.2367
     2.6466   3.0723   3.4910   3.6370   3.7667   4.0467   4.1029   4.4807
     4.6780   4.7939   5.4643   5.9939   6.3554   6.4508   6.7057   6.7502
     6.8799   6.9283

     occupation numbers 
     1.0000   1.0000   1.0000   1.0000   1.0000   1.0000   1.0000   1.0000
     1.0000   1.0000   1.0000   1.0000   1.0000   1.0000   1.0000   1.0000
     1.0000   1.0000   1.0000   1.0000   1.0000   1.0000   1.0000   1.0000
     1.0000   1.0000   1.0000   1.0000   1.0000   1.0000   1.0000   1.0000
     1.0000   1.0000

          k =-0.0000 0.5992 0.0000 (  5685 PWs)   bands (ev):

   -47.0400 -47.0375 -34.8121 -34.8116 -23.3340 -23.3267 -23.3047 -23.2434
   -23.2023 -23.1875  -9.1780  -8.9771  -8.8225  -8.4816  -8.4448  -8.3794
     2.8771   3.0486   3.1111   3.3284   3.7515   4.0294   4.3050   4.5730
     4.8927   5.0563   5.5333   5.6763   6.3419   6.5752   6.6179   6.7664
     6.7910   7.0063

     occupation numbers 
     1.0000   1.0000   1.0000   1.0000   1.0000   1.0000   1.0000   1.0000
     1.0000   1.0000   1.0000   1.0000   1.0000   1.0000   1.0000   1.0000
     1.0000   1.0000   1.0000   1.0000   1.0000   1.0000   1.0000   1.0000
     1.0000   1.0000   1.0000   1.0000   1.0000   1.0000   1.0000   1.0000
     1.0000   1.0000

          k =-0.0000 0.3995 0.0669 (  5676 PWs)   bands (ev):

   -47.0431 -47.0344 -34.8127 -34.8110 -23.3621 -23.3345 -23.2850 -23.2444
   -23.2135 -23.1547  -9.4860  -9.0232  -8.7498  -8.6201  -8.2020  -8.1547
     2.6867   2.8253   2.9289   3.5071   3.5085   3.7372   4.3311   4.7037
     4.9141   5.6891   5.8184   6.1541   6.2711   6.4213   6.5269   6.7828
     6.8766   7.0305

     occupation numbers 
     1.0000   1.0000   1.0000   1.0000   1.0000   1.0000   1.0000   1.0000
     1.0000   1.0000   1.0000   1.0000   1.0000   1.0000   1.0000   1.0000
     1.0000   1.0000   1.0000   1.0000   1.0000   1.0000   1.0000   1.0000
     1.0000   1.0000   1.0000   1.0000   1.0000   1.0000   1.0000   1.0000
     1.0000   1.0000

          k =-0.1730-0.0999 0.3343 (  5673 PWs)   bands (ev):

   -47.0431 -47.0344 -34.8127 -34.8110 -23.3618 -23.3325 -23.2835 -23.2457
   -23.2132 -23.1557  -9.5023  -9.0048  -8.7456  -8.6465  -8.2105  -8.1479
     2.7481   2.8519   3.2173   3.5182   3.5360   3.8153   4.3892   4.7451
     4.8027   5.4603   5.6306   6.0999   6.2077   6.2417   6.3476   6.7510
     6.9050   7.0168

     occupation numbers 
     1.0000   1.0000   1.0000   1.0000   1.0000   1.0000   1.0000   1.0000
     1.0000   1.0000   1.0000   1.0000   1.0000   1.0000   1.0000   1.0000
     1.0000   1.0000   1.0000   1.0000   1.0000   1.0000   1.0000   1.0000
     1.0000   1.0000   1.0000   1.0000   1.0000   1.0000   1.0000   1.0000
     1.0000   1.0000

          k =-0.1730 0.8989 0.0000 (  5661 PWs)   bands (ev):

   -47.0412 -47.0362 -34.8124 -34.8114 -23.3671 -23.3266 -23.3096 -23.2310
   -23.2039 -23.1572  -9.3695  -8.9273  -8.9002  -8.5053  -8.3935  -8.1629
     2.6107   2.9277   3.1541   3.5966   3.6931   4.0852   4.2722   4.7005
     4.9523   5.2604   5.6974   5.8532   6.1438   6.2494   6.4388   6.6535
     6.8022   6.9225

     occupation numbers 
     1.0000   1.0000   1.0000   1.0000   1.0000   1.0000   1.0000   1.0000
     1.0000   1.0000   1.0000   1.0000   1.0000   1.0000   1.0000   1.0000
     1.0000   1.0000   1.0000   1.0000   1.0000   1.0000   1.0000   1.0000
     1.0000   1.0000   1.0000   1.0000   1.0000   1.0000   1.0000   1.0000
     1.0000   1.0000

          k =-0.1730 0.6991 0.0669 (  5670 PWs)   bands (ev):

   -47.0387 -47.0387 -34.8119 -34.8119 -23.3579 -23.3568 -23.2710 -23.2693
   -23.1716 -23.1708  -9.1744  -9.1604  -8.7277  -8.6236  -8.2904  -8.2748
     2.6223   2.7479   3.1842   3.4356   3.8697   4.2347   4.3198   4.5932
     4.9781   5.2939   5.7695   5.9157   5.9849   6.2529   6.4801   6.6091
     6.8126   6.9266

     occupation numbers 
     1.0000   1.0000   1.0000   1.0000   1.0000   1.0000   1.0000   1.0000
     1.0000   1.0000   1.0000   1.0000   1.0000   1.0000   1.0000   1.0000
     1.0000   1.0000   1.0000   1.0000   1.0000   1.0000   1.0000   1.0000
     1.0000   1.0000   1.0000   1.0000   1.0000   1.0000   1.0000   1.0000
     1.0000   1.0000

          k =-0.1730 0.4994 0.1337 (  5672 PWs)   bands (ev):

   -47.0412 -47.0362 -34.8124 -34.8114 -23.3671 -23.3277 -23.3113 -23.2308
   -23.2029 -23.1568  -9.3591  -8.9355  -8.8904  -8.5032  -8.4013  -8.1530
     2.5779   2.9224   3.0203   3.3318   3.6932   4.0892   4.2407   4.8444
     4.9405   5.4995   5.6595   5.9558   6.2230   6.3959   6.4931   6.6353
     6.7963   7.0142

     occupation numbers 
     1.0000   1.0000   1.0000   1.0000   1.0000   1.0000   1.0000   1.0000
     1.0000   1.0000   1.0000   1.0000   1.0000   1.0000   1.0000   1.0000
     1.0000   1.0000   1.0000   1.0000   1.0000   1.0000   1.0000   1.0000
     1.0000   1.0000   1.0000   1.0000   1.0000   1.0000   1.0000   1.0000
     1.0000   1.0000

          k = 0.6920 0.3995-0.3343 (  5693 PWs)   bands (ev):

   -47.0409 -47.0365 -34.8123 -34.8114 -23.3667 -23.3590 -23.3309 -23.2098
   -23.1719 -23.1563  -9.3701  -9.0737  -8.9602  -8.3411  -8.2574  -8.2193
     2.6842   2.7399   2.8146   3.1596   4.0664   4.2382   4.5714   4.8760
     5.2926   5.3832   5.7263   5.8060   6.0036   6.2113   6.3222   6.4280
     6.5843   6.9507

     occupation numbers 
     1.0000   1.0000   1.0000   1.0000   1.0000   1.0000   1.0000   1.0000
     1.0000   1.0000   1.0000   1.0000   1.0000   1.0000   1.0000   1.0000
     1.0000   1.0000   1.0000   1.0000   1.0000   1.0000   1.0000   1.0000
     1.0000   1.0000   1.0000   1.0000   1.0000   1.0000   1.0000   1.0000
     1.0000   1.0000

          k = 0.6920 0.1997-0.2674 (  5669 PWs)   bands (ev):

   -47.0400 -47.0374 -34.8121 -34.8116 -23.3708 -23.3690 -23.3101 -23.2293
   -23.1599 -23.1566  -9.2999  -9.1556  -8.8793  -8.4382  -8.2508  -8.1911
     2.5443   2.5815   2.9428   3.4328   3.7363   4.4847   4.6176   4.8022
     5.2837   5.4129   5.6269   5.7344   6.0116   6.1946   6.4250   6.5072
     6.6544   6.9456

     occupation numbers 
     1.0000   1.0000   1.0000   1.0000   1.0000   1.0000   1.0000   1.0000
     1.0000   1.0000   1.0000   1.0000   1.0000   1.0000   1.0000   1.0000
     1.0000   1.0000   1.0000   1.0000   1.0000   1.0000   1.0000   1.0000
     1.0000   1.0000   1.0000   1.0000   1.0000   1.0000   1.0000   1.0000
     1.0000   1.0000

          k = 0.6920-0.0000-0.2006 (  5664 PWs)   bands (ev):

   -47.0387 -47.0387 -34.8119 -34.8119 -23.3575 -23.3575 -23.2705 -23.2705
   -23.1709 -23.1709  -9.1647  -9.1647  -8.6810  -8.6810  -8.2773  -8.2773
     2.6432   2.6432   3.3080   3.3080   3.9993   3.9993   4.4875   4.4875
     5.1115   5.1115   5.8550   5.8550   6.2009   6.2009   6.5698   6.5698
     6.9063   6.9063

     occupation numbers 
     1.0000   1.0000   1.0000   1.0000   1.0000   1.0000   1.0000   1.0000
     1.0000   1.0000   1.0000   1.0000   1.0000   1.0000   1.0000   1.0000
     1.0000   1.0000   1.0000   1.0000   1.0000   1.0000   1.0000   1.0000
     1.0000   1.0000   1.0000   1.0000   1.0000   1.0000   1.0000   1.0000
     1.0000   1.0000

          k = 0.5190 0.2996-0.2006 (  5663 PWs)   bands (ev):

   -47.0409 -47.0365 -34.8123 -34.8114 -23.3669 -23.3595 -23.3315 -23.2099
   -23.1716 -23.1560  -9.3623  -9.0716  -8.9646  -8.3423  -8.2471  -8.2228
     2.6088   2.7446   2.8110   3.0350   3.9993   4.3161   4.5716   4.8187
     5.2534   5.3610   5.8122   6.0641   6.0993   6.2076   6.4093   6.4124
     6.5768   6.9757

     occupation numbers 
     1.0000   1.0000   1.0000   1.0000   1.0000   1.0000   1.0000   1.0000
     1.0000   1.0000   1.0000   1.0000   1.0000   1.0000   1.0000   1.0000
     1.0000   1.0000   1.0000   1.0000   1.0000   1.0000   1.0000   1.0000
     1.0000   1.0000   1.0000   1.0000   1.0000   1.0000   1.0000   1.0000
     1.0000   1.0000

          k =-0.0000-0.0000 0.4011 (  5646 PWs)   bands (ev):

   -47.0425 -47.0350 -34.8125 -34.8111 -23.3283 -23.3283 -23.2646 -23.2473
   -23.2473 -23.1778  -9.4052  -8.8587  -8.8587  -8.5802  -8.3029  -8.3029
     3.0576   3.0576   3.3881   3.6551   3.6551   4.2166   4.2485   4.2485
     4.3511   5.3133   5.3133   5.6271   6.1944   6.5175   6.5175   6.6864
     6.9966   6.9966

     occupation numbers 
     1.0000   1.0000   1.0000   1.0000   1.0000   1.0000   1.0000   1.0000
     1.0000   1.0000   1.0000   1.0000   1.0000   1.0000   1.0000   1.0000
     1.0000   1.0000   1.0000   1.0000   1.0000   1.0000   1.0000   1.0000
     1.0000   1.0000   1.0000   1.0000   1.0000   1.0000   1.0000   1.0000
     1.0000   1.0000

          k =-0.0000 0.9987 0.0669 (  5659 PWs)   bands (ev):

   -47.0409 -47.0365 -34.8123 -34.8114 -23.3535 -23.2925 -23.2843 -23.2621
   -23.2319 -23.1714  -9.3033  -8.8273  -8.7700  -8.6466  -8.5346  -8.2289
     2.8363   3.2438   3.4987   3.6885   3.7348   4.0433   4.2025   4.5191
     4.6932   4.6948   5.3712   5.8466   6.1583   6.1683   6.6559   6.7207
     6.8372   6.8831

     occupation numbers 
     1.0000   1.0000   1.0000   1.0000   1.0000   1.0000   1.0000   1.0000
     1.0000   1.0000   1.0000   1.0000   1.0000   1.0000   1.0000   1.0000
     1.0000   1.0000   1.0000   1.0000   1.0000   1.0000   1.0000   1.0000
     1.0000   1.0000   1.0000   1.0000   1.0000   1.0000   1.0000   1.0000
     1.0000   1.0000

          k =-0.0000 0.7990 0.1337 (  5673 PWs)   bands (ev):

   -47.0387 -47.0387 -34.8119 -34.8119 -23.3685 -23.3362 -23.3015 -23.2409
   -23.1888 -23.1607  -9.2119  -9.1216  -8.7937  -8.4925  -8.4195  -8.2229
     2.5890   3.0584   3.0740   3.5380   3.8716   3.8795   4.6221   4.6769
     5.0693   5.2721   5.6565   5.6642   5.9460   6.2395   6.4786   6.5158
     6.6791   6.9644

     occupation numbers 
     1.0000   1.0000   1.0000   1.0000   1.0000   1.0000   1.0000   1.0000
     1.0000   1.0000   1.0000   1.0000   1.0000   1.0000   1.0000   1.0000
     1.0000   1.0000   1.0000   1.0000   1.0000   1.0000   1.0000   1.0000
     1.0000   1.0000   1.0000   1.0000   1.0000   1.0000   1.0000   1.0000
     1.0000   1.0000

          k = 0.8649 0.4994-0.2674 (  5653 PWs)   bands (ev):

   -47.0400 -47.0375 -34.8121 -34.8116 -23.3335 -23.3246 -23.3020 -23.2430
   -23.2041 -23.1890  -9.2025  -8.9893  -8.8035  -8.4742  -8.4716  -8.3739
     3.1016   3.1877   3.2089   3.7484   3.8549   4.0148   4.1516   4.4705
     4.8147   4.9492   5.2738   5.5218   6.2401   6.3167   6.4761   6.6765
     6.7100   6.9274

     occupation numbers 
     1.0000   1.0000   1.0000   1.0000   1.0000   1.0000   1.0000   1.0000
     1.0000   1.0000   1.0000   1.0000   1.0000   1.0000   1.0000   1.0000
     1.0000   1.0000   1.0000   1.0000   1.0000   1.0000   1.0000   1.0000
     1.0000   1.0000   1.0000   1.0000   1.0000   1.0000   1.0000   1.0000
     1.0000   1.0000

          k = 0.8649 0.2996-0.2006 (  5670 PWs)   bands (ev):

   -47.0387 -47.0387 -34.8119 -34.8119 -23.3567 -23.3567 -23.2696 -23.2696
   -23.1718 -23.1718  -9.1770  -9.1770  -8.6717  -8.6717  -8.2850  -8.2850
     2.7750   2.7750   3.3278   3.3278   4.1223   4.1223   4.4143   4.4143
     5.2003   5.2003   5.6851   5.6851   6.0507   6.0507   6.4252   6.4252
     6.8429   6.8429

     occupation numbers 
     1.0000   1.0000   1.0000   1.0000   1.0000   1.0000   1.0000   1.0000
     1.0000   1.0000   1.0000   1.0000   1.0000   1.0000   1.0000   1.0000
     1.0000   1.0000   1.0000   1.0000   1.0000   1.0000   1.0000   1.0000
     1.0000   1.0000   1.0000   1.0000   1.0000   1.0000   1.0000   1.0000
     1.0000   1.0000

          k =-0.0000 0.0000-0.6017 (  5632 PWs)   bands (ev):

   -47.0387 -47.0387 -34.8119 -34.8119 -23.2882 -23.2882 -23.2882 -23.2882
   -23.2220 -23.2220  -9.0045  -9.0045  -8.5880  -8.5880  -8.5880  -8.5880
     3.5938   3.5938   3.5938   3.5938   3.8555   3.8555   4.4487   4.4487
     4.4487   4.4487   4.8416   4.8416   6.4950   6.4950   6.7574   6.7574
     6.7574   6.7574

     occupation numbers 
     1.0000   1.0000   1.0000   1.0000   1.0000   1.0000   1.0000   1.0000
     1.0000   1.0000   1.0000   1.0000   1.0000   1.0000   1.0000   1.0000
     1.0000   1.0000   1.0000   1.0000   1.0000   1.0000   1.0000   1.0000
     1.0000   1.0000   1.0000   1.0000   1.0000   1.0000   1.0000   1.0000
     1.0000   1.0000

     highest occupied level (ev):     7.0941

!    total energy              =    -936.83369261 Ry
     estimated scf accuracy    <          1.0E-12 Ry

     The total energy is the sum of the following terms:
     one-electron contribution =    -141.51766158 Ry
     hartree contribution      =     105.08441382 Ry
     xc contribution           =    -108.16632187 Ry
     ewald contribution        =    -328.77972097 Ry
     one-center paw contrib.   =    -463.45440200 Ry
      -> PAW hartree energy AE =     292.63566835 Ry
      -> PAW hartree energy PS =    -291.11922054 Ry
      -> PAW xc energy AE      =    -560.57472054 Ry
      -> PAW xc energy PS      =      95.60387072 Ry
      -> total E_H with PAW    =     106.60086163 Ry
      -> total E_XC with PAW   =    -573.13717169 Ry

     convergence has been achieved in  23 iterations

     Forces acting on atoms (cartesian axes, Ry/au):

     atom    1 type  1   force =    -0.00000000   -0.00000000   -0.00251270
     atom    2 type  1   force =    -0.00000000    0.00000000   -0.00251270
     atom    3 type  2   force =     0.01049671   -0.00429994   -0.00264876
     atom    4 type  2   force =    -0.00152449    0.01124038   -0.00264876
     atom    5 type  2   force =    -0.00897221   -0.00694044   -0.00264876
     atom    6 type  2   force =     0.00152449    0.01124038   -0.00264876
     atom    7 type  2   force =    -0.01049671   -0.00429994   -0.00264876
     atom    8 type  2   force =     0.00897221   -0.00694044   -0.00264876
     atom    9 type  3   force =    -0.00000000    0.00000000    0.01045898
     atom   10 type  3   force =    -0.00000000    0.00000000    0.01045898
     The non-local contrib.  to forces
     atom    1 type  1   force =     0.00000000    0.00000000    0.00432266
     atom    2 type  1   force =     0.00000000    0.00000000    0.00432266
     atom    3 type  2   force =     0.31699746   -0.21447939   -0.03415473
     atom    4 type  2   force =     0.02724587    0.38176755   -0.03415473
     atom    5 type  2   force =    -0.34424333   -0.16728815   -0.03415473
     atom    6 type  2   force =    -0.02724587    0.38176755   -0.03415473
     atom    7 type  2   force =    -0.31699746   -0.21447939   -0.03415473
     atom    8 type  2   force =     0.34424333   -0.16728815   -0.03415473
     atom    9 type  3   force =    -0.00000000    0.00000000   -0.01266021
     atom   10 type  3   force =    -0.00000000   -0.00000000   -0.01266021
     The ionic contribution  to forces
     atom    1 type  1   force =     0.00000000   -0.00000000   -1.23135846
     atom    2 type  1   force =    -0.00000000   -0.00000000   -1.23135846
     atom    3 type  2   force =    -3.52042470    2.80225709    0.28987011
     atom    4 type  2   force =    -0.66661348   -4.44990577    0.28987011
     atom    5 type  2   force =     4.18703818    1.64764868    0.28987011
     atom    6 type  2   force =     0.66661348   -4.44990577    0.28987011
     atom    7 type  2   force =     3.52042470    2.80225709    0.28987011
     atom    8 type  2   force =    -4.18703818    1.64764868    0.28987011
     atom    9 type  3   force =     0.00000000   -0.00000000    0.36174813
     atom   10 type  3   force =     0.00000000    0.00000000    0.36174813
     The local contribution  to forces
     atom    1 type  1   force =    -0.00000000   -0.00000000    1.22452312
     atom    2 type  1   force =     0.00000000    0.00000000    1.22452312
     atom    3 type  2   force =     3.21526128   -2.59394280   -0.25824266
     atom    4 type  2   force =     0.63878972    4.08146935   -0.25824266
     atom    5 type  2   force =    -3.85405100   -1.48752654   -0.25824266
     atom    6 type  2   force =    -0.63878973    4.08146935   -0.25824266
     atom    7 type  2   force =    -3.21526128   -2.59394280   -0.25824266
     atom    8 type  2   force =     3.85405100   -1.48752654   -0.25824266
     atom    9 type  3   force =     0.00000000    0.00000000   -0.33486025
     atom   10 type  3   force =     0.00000000    0.00000000   -0.33486025
     The core correction contribution to forces
     atom    1 type  1   force =     0.00000000    0.00000000    0.00000000
     atom    2 type  1   force =     0.00000000    0.00000000    0.00000000
     atom    3 type  2   force =    -0.00133776    0.00186534   -0.00012147
     atom    4 type  2   force =    -0.00094655   -0.00209120   -0.00012147
     atom    5 type  2   force =     0.00228431    0.00022587   -0.00012147
     atom    6 type  2   force =     0.00094655   -0.00209120   -0.00012147
     atom    7 type  2   force =     0.00133776    0.00186534   -0.00012147
     atom    8 type  2   force =    -0.00228431    0.00022587   -0.00012147
     atom    9 type  3   force =    -0.00000000    0.00000000   -0.00376882
     atom   10 type  3   force =    -0.00000000   -0.00000000   -0.00376882
     The Hubbard contrib.    to forces
     atom    1 type  1   force =     0.00000000    0.00000000    0.00000000
     atom    2 type  1   force =     0.00000000    0.00000000    0.00000000
     atom    3 type  2   force =     0.00000000    0.00000000    0.00000000
     atom    4 type  2   force =     0.00000000    0.00000000    0.00000000
     atom    5 type  2   force =     0.00000000    0.00000000    0.00000000
     atom    6 type  2   force =     0.00000000    0.00000000    0.00000000
     atom    7 type  2   force =     0.00000000    0.00000000    0.00000000
     atom    8 type  2   force =     0.00000000    0.00000000    0.00000000
     atom    9 type  3   force =     0.00000000    0.00000000    0.00000000
     atom   10 type  3   force =     0.00000000    0.00000000    0.00000000
     The SCF correction term to forces
     atom    1 type  1   force =     0.00000000    0.00000000    0.00000001
     atom    2 type  1   force =    -0.00000000   -0.00000000    0.00000001
     atom    3 type  2   force =     0.00000044   -0.00000017    0.00000001
     atom    4 type  2   force =    -0.00000007    0.00000047    0.00000001
     atom    5 type  2   force =    -0.00000037   -0.00000029    0.00000001
     atom    6 type  2   force =     0.00000007    0.00000047    0.00000001
     atom    7 type  2   force =    -0.00000044   -0.00000017    0.00000001
     atom    8 type  2   force =     0.00000037   -0.00000029    0.00000001
     atom    9 type  3   force =     0.00000000   -0.00000000    0.00000016
     atom   10 type  3   force =     0.00000000   -0.00000000    0.00000016

     Total force =     0.032335     Total SCF correction =     0.000001


     Computing stress (Cartesian axis) and pressure

          total   stress  (Ry/bohr**3)                   (kbar)     P=      -42.65
  -0.00044880   0.00000000   0.00000000          -66.02        0.00        0.00
  -0.00000000  -0.00044880  -0.00000000           -0.00      -66.02       -0.00
   0.00000000  -0.00000000   0.00002787            0.00       -0.00        4.10

     kinetic stress (kbar)  26187.62     -0.00     -0.00
                               -0.00  26187.62      0.00
                               -0.00      0.00  26206.68

     local   stress (kbar) -13265.61     -0.00     -0.00
                               -0.00 -13265.61     -0.00
                               -0.00     -0.00 -10187.82

     nonloc. stress (kbar)   6834.29     -0.00      0.00
                               -0.00   6834.29      0.00
                               -0.00      0.00   6888.58

     hartree stress (kbar)   7405.28      0.00     -0.00
                                0.00   7405.28      0.00
                               -0.00      0.00   6587.93

     exc-cor stress (kbar)   1067.89      0.00     -0.00
                                0.00   1067.89      0.00
                               -0.00      0.00   1063.80

     corecor stress (kbar)  -6731.77     -0.00     -0.00
                               -0.00  -6731.77     -0.00
                               -0.00     -0.00  -6732.62

     ewald   stress (kbar) -21563.72      0.00      0.00
                                0.00 -21563.72      0.00
                                0.00      0.00 -23822.45

     hubbard stress (kbar)      0.00      0.00      0.00
                                0.00      0.00      0.00
                                0.00      0.00      0.00

     DFT-D   stress (kbar)      0.00      0.00      0.00
                                0.00      0.00      0.00
                                0.00      0.00      0.00

     XDM     stress (kbar)      0.00      0.00      0.00
                                0.00      0.00      0.00
                                0.00      0.00      0.00

     dft-nl  stress (kbar)      0.00      0.00      0.00
                                0.00      0.00      0.00
                                0.00      0.00      0.00

     TS-vdW  stress (kbar)      0.00      0.00      0.00
                                0.00      0.00      0.00
                                0.00      0.00      0.00

     MDB     stress (kbar)      0.00      0.00      0.00
                                0.00      0.00      0.00
                                0.00      0.00      0.00

     3D-RISM stress (kbar)      0.00      0.00      0.00
                                0.00      0.00      0.00
                                0.00      0.00      0.00

     Message from routine punch:
     Nothing written, as per user request (disk_io='none')
 
     init_run     :      0.62s CPU      0.83s WALL (       1 calls)
     electrons    :     20.06s CPU     20.47s WALL (       1 calls)
     forces       :      0.08s CPU      0.08s WALL (       1 calls)
     stress       :      0.16s CPU      0.17s WALL (       1 calls)

     Called by init_run:
     wfcinit      :      0.19s CPU      0.29s WALL (       1 calls)
     wfcinit:atom :      0.03s CPU      0.03s WALL (      32 calls)
     wfcinit:wfcr :      0.13s CPU      0.20s WALL (      32 calls)
     potinit      :      0.10s CPU      0.13s WALL (       1 calls)
     hinit0       :      0.24s CPU      0.26s WALL (       1 calls)

     Called by electrons:
     c_bands      :     16.20s CPU     16.49s WALL (      23 calls)
     sum_band     :      1.62s CPU      1.64s WALL (      23 calls)
     v_of_rho     :      0.09s CPU      0.12s WALL (      24 calls)
     v_h          :      0.04s CPU      0.05s WALL (      24 calls)
     v_xc         :      0.06s CPU      0.07s WALL (      26 calls)
     newd         :      0.23s CPU      0.27s WALL (      24 calls)
     PAW_pot      :      1.75s CPU      1.82s WALL (      24 calls)
     mix_rho      :      0.16s CPU      0.17s WALL (      23 calls)

     Called by c_bands:
     init_us_2    :      0.50s CPU      0.51s WALL (    1568 calls)
     cegterg      :     15.05s CPU     15.30s WALL (     736 calls)

     Called by sum_band:
     sum_band:wei :      0.00s CPU      0.00s WALL (      23 calls)
     sum_band:loo :      1.24s CPU      1.26s WALL (      23 calls)
     sum_band:buf :      0.23s CPU      0.24s WALL (     736 calls)
     sum_band:ini :      0.24s CPU      0.24s WALL (     736 calls)
     sum_band:cal :      0.01s CPU      0.01s WALL (     736 calls)
     sum_band:bec :      0.28s CPU      0.28s WALL (     736 calls)
     addusdens    :      0.24s CPU      0.25s WALL (      23 calls)
                                        0.25s GPU  (      23 calls)
     addusd:skk   :      0.01s CPU      0.01s WALL (      69 calls)
                                        0.01s GPU  (      69 calls)

     Called by *egterg:
     cdiaghg      :      6.52s CPU      6.68s WALL (    5640 calls)
                                        6.62s GPU  (    5640 calls)
     cegterg:over :      0.43s CPU      0.44s WALL (    4904 calls)
     cegterg:upda :      1.58s CPU      1.59s WALL (    4904 calls)
     cegterg:last :      0.22s CPU      0.23s WALL (    3381 calls)
     h_psi        :      4.13s CPU      4.32s WALL (    5672 calls)
     s_psi        :      1.45s CPU      1.47s WALL (    5672 calls)
     g_psi        :      0.10s CPU      0.10s WALL (    4904 calls)

     Called by h_psi:
     h_psi:calbec :      0.10s CPU      0.14s WALL (    5672 calls)
     vloc_psi     :      2.63s CPU      2.84s WALL (    5672 calls)
                                        2.79s GPU  (    5672 calls)
     add_vuspsi   :      1.23s CPU      1.25s WALL (    5672 calls)

     General routines
     calbec       :      0.11s CPU      0.15s WALL (    6952 calls)
     fft          :      0.03s CPU      0.05s WALL (     335 calls)
                                        0.02s GPU  (     311 calls)
     ffts         :      0.01s CPU      0.02s WALL (      47 calls)
                                        0.00s GPU  (      23 calls)
     fftw         :      0.18s CPU      1.66s WALL (   24070 calls)
                                        1.43s GPU  (   24070 calls)
     interpolate  :      0.07s CPU      0.08s WALL (      24 calls)
 
     Parallel routines

     PAW routines
     PAW_pot      :      1.75s CPU      1.82s WALL (      24 calls)
     PAW_symme    :      0.00s CPU      0.00s WALL (      47 calls)
 
     PWSCF        :     21.31s CPU     21.96s WALL

 
   This run was terminated on:  17: 6:25  29Nov2025            

=------------------------------------------------------------------------------=
   JOB DONE.
=------------------------------------------------------------------------------=
