
     Program PWSCF v.7.5 starts on 29Nov2025 at 17: 5:59 

     This program is part of the open-source Quantum ESPRESSO suite
     for quantum simulation of materials; please cite
         "P. Giannozzi et al., J. Phys.:Condens. Matter 21 395502 (2009);
         "P. Giannozzi et al., J. Phys.:Condens. Matter 29 465901 (2017);
         "P. Giannozzi et al., J. Chem. Phys. 152 154105 (2020);
          URL http://www.quantum-espresso.org", 
     in publications or presentations arising from this work. More details at
     http://www.quantum-espresso.org/quote

     Parallel version (MPI & OpenMP), running on       1 processor cores
     Number of MPI processes:                 1
     Threads/MPI process:                     1

     MPI processes distributed on     1 nodes
     1776126 MiB available memory on the printing compute node when the environment starts
 
     Reading input from espresso.pwi
Warning: card &CELL ignored
Warning: card &FCP ignored
Warning: card &RISM ignored

     Current dimensions of program PWSCF are:
     Max number of different atomic species (ntypx) = 10
     Max number of k-points (npk) =  40000
     Max angular momentum in pseudopotentials (lmaxx) =  4
     file O.pbesol-n-kjpaw_psl.0.1.UPF: wavefunction(s)  2P renormalized
     file Nb.pbesol-spn-kjpaw_psl.0.3.0.UPF: wavefunction(s)  4S 4P renormalized
     Message from routine setup:
     using ibrav=0 with symmetry is DISCOURAGED, use correct ibrav instead
 
     Subspace diagonalization in iterative solution of the eigenvalue problem:
     a serial algorithm will be used

 
     G-vector sticks info
     --------------------
     sticks:   dense  smooth     PW     G-vecs:    dense   smooth      PW
     Sum        2815    1705    493                96589    44965    7097
 
     Using Slab Decomposition
 


     bravais-lattice index     =            0
     lattice parameter (alat)  =      10.3058  a.u.
     unit-cell volume          =     715.5408 (a.u.)^3
     number of atoms/cell      =           10
     number of atomic types    =            3
     number of electrons       =        68.00
     number of Kohn-Sham states=           34
     kinetic-energy cutoff     =      60.0000  Ry
     charge density cutoff     =     400.0000  Ry
     scf convergence threshold =      1.0E-12
     mixing beta               =       0.7000
     number of iterations used =            8  plain     mixing
     Exchange-correlation= SLA  PW   PSX  PSC
                           (   1   4  10   8   0   0   0)

     GPU acceleration is ACTIVE.  1 visible GPUs per MPI rank


     GPU used by master process:

        Device Number: 0
        Device name: NVIDIA B200
        Compute capability : 100
        Ratio of single to double precision performance  : 16
        Memory Clock Rate (KHz): 3996000
        Memory Bus Width (bits): 7680
        Peak Memory Bandwidth (GB/s): ******

     celldm(1)=  10.305849  celldm(2)=   0.000000  celldm(3)=   0.000000
     celldm(4)=   0.000000  celldm(5)=   0.000000  celldm(6)=   0.000000

     crystal axes: (cart. coord. in units of alat)
               a(1) = (   0.475080   0.274288   0.836101 )  
               a(2) = (  -0.475080   0.274288   0.836101 )  
               a(3) = (   0.000000  -0.548575   0.836101 )  

     reciprocal axes: (cart. coord. in units 2 pi/alat)
               b(1) = (  1.052454  0.607635  0.398676 )  
               b(2) = ( -1.052454  0.607635  0.398676 )  
               b(3) = ( -0.000000 -1.215269  0.398676 )  


     PseudoPot. # 1 for Li read from file:
     /home/qhossain/SSSP_1.3.0_PBEsol_efficiency/li_pbesol_v1.4.uspp.F.UPF
     MD5 check sum: aa28d9aeea6a965f2dc95ee9517b3536
     Pseudo is Ultrasoft, Zval =  3.0
     Generated by new atomic code, or converted to UPF format
     Using radial grid of  751 points,  5 beta functions with: 
                l(1) =   0
                l(2) =   0
                l(3) =   0
                l(4) =   1
                l(5) =   1
     Q(r) pseudized with 10 coefficients,  rinner =    1.150   1.150   1.150


     PseudoPot. # 2 for O  read from file:
     /home/qhossain/SSSP_1.3.0_PBEsol_efficiency/O.pbesol-n-kjpaw_psl.0.1.UPF
     MD5 check sum: 81d73d1479e654e5638b0319f0d6c2c7
     Pseudo is Projector augmented-wave + core cor, Zval =  6.0
     Generated using "atomic" code by A. Dal Corso  v.6.0 svn rev. 13079
     Shape of augmentation charge: BESSEL
     Using radial grid of 1095 points,  4 beta functions with: 
                l(1) =   0
                l(2) =   0
                l(3) =   1
                l(4) =   1
     Q(r) pseudized with 0 coefficients 


     PseudoPot. # 3 for Nb read from file:
     /home/qhossain/SSSP_1.3.0_PBEsol_efficiency/Nb.pbesol-spn-kjpaw_psl.0.3.0.UPF
     MD5 check sum: 3501bca1474143575298708b2d32ca28
     Pseudo is Projector augmented-wave + core cor, Zval = 13.0
     Generated using "atomic" code by A. Dal Corso  v.6.0 svn rev. 13079
     Shape of augmentation charge: PSQ
     Using radial grid of 1227 points,  6 beta functions with: 
                l(1) =   0
                l(2) =   0
                l(3) =   1
                l(4) =   1
                l(5) =   2
                l(6) =   2
     Q(r) pseudized with 0 coefficients 


     atomic species   valence    mass     pseudopotential
     Li                3.00     6.94000     Li( 1.00)
     O                 6.00    15.99900     O ( 1.00)
     Nb               13.00    92.90637     Nb( 1.00)

      6 Sym. Ops. (no inversion) found ( 3 have fractional translation)


                                    s                        frac. trans.

      isym =  1     identity                                     

 cryst.   s( 1) = (     1          0          0      )
                  (     0          1          0      )
                  (     0          0          1      )

 cart.    s( 1) = (  1.0000000 -0.0000000 -0.0000000 )
                  (  0.0000000  1.0000000  0.0000000 )
                  ( -0.0000000  0.0000000  1.0000000 )


      isym =  2     120 deg rotation - cryst. axis [0,0,1]       

 cryst.   s( 2) = (     0          1          0      )
                  (     0          0          1      )
                  (     1          0          0      )

 cart.    s( 2) = ( -0.5000000 -0.8660254 -0.0000000 )
                  (  0.8660254 -0.5000000 -0.0000000 )
                  ( -0.0000000 -0.0000000  1.0000000 )


      isym =  3     120 deg rotation - cryst. axis [0,0,-1]      

 cryst.   s( 3) = (     0          0          1      )
                  (     1          0          0      )
                  (     0          1          0      )

 cart.    s( 3) = ( -0.5000000  0.8660254  0.0000000 )
                  ( -0.8660254 -0.5000000 -0.0000000 )
                  (  0.0000000 -0.0000000  1.0000000 )


      isym =  4     inv. 180 deg rotation - cart. axis [1,0,0]   

 cryst.   s( 4) = (     0          1          0      )    f =( -0.5000000 )
                  (     1          0          0      )       ( -0.5000000 )
                  (     0          0          1      )       ( -0.5000000 )

 cart.    s( 4) = ( -1.0000000 -0.0000000 -0.0000000 )    f =( -0.0000000 )
                  ( -0.0000000  1.0000000  0.0000000 )       ( -0.0000000 )
                  (  0.0000000  0.0000000  1.0000000 )       ( -1.2541518 )


      isym =  5     inv. 180 deg rotation - cryst. axis [0,1,0]  

 cryst.   s( 5) = (     1          0          0      )    f =( -0.5000000 )
                  (     0          0          1      )       ( -0.5000000 )
                  (     0          1          0      )       ( -0.5000000 )

 cart.    s( 5) = (  0.5000000  0.8660254  0.0000000 )    f =(  0.0000000 )
                  (  0.8660254 -0.5000000 -0.0000000 )       ( -0.0000000 )
                  ( -0.0000000 -0.0000000  1.0000000 )       ( -1.2541518 )


      isym =  6     inv. 180 deg rotation - cryst. axis [1,1,0]  

 cryst.   s( 6) = (     0          0          1      )    f =( -0.5000000 )
                  (     0          1          0      )       ( -0.5000000 )
                  (     1          0          0      )       ( -0.5000000 )

 cart.    s( 6) = (  0.5000000 -0.8660254 -0.0000000 )    f =( -0.0000000 )
                  ( -0.8660254 -0.5000000 -0.0000000 )       ( -0.0000000 )
                  (  0.0000000 -0.0000000  1.0000000 )       ( -1.2541518 )


   Cartesian axes

     site n.     atom                  positions (alat units)
         1        Li     tau(   1) = (   0.0000000  -0.0000000   1.9650776  )
         2        Li     tau(   2) = (  -0.0000000  -0.0000000   0.7109258  )
         3        O      tau(   3) = (  -0.3045173  -0.0388377   1.4199607  )
         4        O      tau(   4) = (   0.1858931  -0.2443009   1.4199607  )
         5        O      tau(   5) = (   0.1186242   0.2831386   1.4199607  )
         6        O      tau(   6) = (   0.2891870   0.0299868   1.0019101  )
         7        O      tau(   7) = (  -0.1705628   0.2354499   1.0019101  )
         8        O      tau(   8) = (  -0.1186242  -0.2654366   1.0019101  )
         9        Nb     tau(   9) = (  -0.0000000  -0.0000000   1.2568510  )
        10        Nb     tau(  10) = (  -0.0000000  -0.0000000   0.0026992  )

   Crystallographic axes

     site n.     atom                  positions (cryst. coord.)
         1        Li     tau(   1) = (  0.7834289  0.7834289  0.7834289  )
         2        Li     tau(   2) = (  0.2834289  0.2834289  0.2834289  )
         3        O      tau(   3) = (  0.2220144  0.8629954  0.6133023  )
         4        O      tau(   4) = (  0.6133023  0.2220144  0.8629954  )
         5        O      tau(   5) = (  0.8629954  0.6133023  0.2220144  )
         6        O      tau(   6) = (  0.7220144  0.1133023  0.3629954  )
         7        O      tau(   7) = (  0.3629954  0.7220144  0.1133023  )
         8        O      tau(   8) = (  0.1133023  0.3629954  0.7220144  )
         9        Nb     tau(   9) = (  0.5010761  0.5010761  0.5010761  )
        10        Nb     tau(  10) = (  0.0010761  0.0010761  0.0010761  )

     number of k points=    32
                       cart. coord. in units 2pi/alat
        k(    1) = (   0.0000000   0.0000000   0.0000000), wk =   0.0092593
        k(    2) = (  -0.0000000  -0.2025449   0.0664460), wk =   0.0555556
        k(    3) = (  -0.0000000  -0.4050898   0.1328919), wk =   0.0555556
        k(    4) = (   0.0000000   0.6076347  -0.1993379), wk =   0.0277778
        k(    5) = (  -0.1754090  -0.1012724   0.1328919), wk =   0.0555556
        k(    6) = (  -0.1754090  -0.3038173   0.1993379), wk =   0.1111111
        k(    7) = (  -0.1754090   0.7089071  -0.1328919), wk =   0.1111111
        k(    8) = (  -0.1754090   0.5063622  -0.0664460), wk =   0.1111111
        k(    9) = (  -0.1754090   0.3038173   0.0000000), wk =   0.0555556
        k(   10) = (  -0.3508180  -0.2025449   0.2657839), wk =   0.0555556
        k(   11) = (  -0.3508180   0.8101796  -0.0664460), wk =   0.1111111
        k(   12) = (  -0.3508180   0.6076347   0.0000000), wk =   0.0555556
        k(   13) = (   0.5262271   0.3038173  -0.3986758), wk =   0.0277778
        k(   14) = (  -0.0000000   0.0000000   0.1993379), wk =   0.0185185
        k(   15) = (  -0.0000000  -0.2025449   0.2657839), wk =   0.0555556
        k(   16) = (   0.0000000   0.8101796  -0.0664460), wk =   0.0555556
        k(   17) = (   0.0000000   0.6076347   0.0000000), wk =   0.0555556
        k(   18) = (   0.0000000   0.4050898   0.0664460), wk =   0.0555556
        k(   19) = (  -0.1754090  -0.1012724   0.3322299), wk =   0.0555556
        k(   20) = (  -0.1754090   0.9114520   0.0000000), wk =   0.1111111
        k(   21) = (  -0.1754090   0.7089071   0.0664460), wk =   0.1111111
        k(   22) = (  -0.1754090   0.5063622   0.1328919), wk =   0.1111111
        k(   23) = (   0.7016361   0.4050898  -0.3322299), wk =   0.0555556
        k(   24) = (   0.7016361   0.2025449  -0.2657839), wk =   0.1111111
        k(   25) = (   0.7016361  -0.0000000  -0.1993379), wk =   0.0555556
        k(   26) = (   0.5262271   0.3038173  -0.1993379), wk =   0.0555556
        k(   27) = (  -0.0000000   0.0000000   0.3986758), wk =   0.0185185
        k(   28) = (   0.0000000   1.0127245   0.0664460), wk =   0.0555556
        k(   29) = (   0.0000000   0.8101796   0.1328919), wk =   0.0555556
        k(   30) = (   0.8770451   0.5063622  -0.2657839), wk =   0.0555556
        k(   31) = (   0.8770451   0.3038173  -0.1993379), wk =   0.0555556
        k(   32) = (   0.0000000   0.0000000  -0.5980137), wk =   0.0092593

                       cryst. coord.
        k(    1) = (   0.0000000   0.0000000   0.0000000), wk =   0.0092593
        k(    2) = (  -0.0000000  -0.0000000   0.1666667), wk =   0.0555556
        k(    3) = (  -0.0000000  -0.0000000   0.3333333), wk =   0.0555556
        k(    4) = (   0.0000000   0.0000000  -0.5000000), wk =   0.0277778
        k(    5) = (  -0.0000000   0.1666667   0.1666667), wk =   0.0555556
        k(    6) = (  -0.0000000   0.1666667   0.3333333), wk =   0.1111111
        k(    7) = (   0.0000000   0.1666667  -0.5000000), wk =   0.1111111
        k(    8) = (  -0.0000000   0.1666667  -0.3333333), wk =   0.1111111
        k(    9) = (  -0.0000000   0.1666667  -0.1666667), wk =   0.0555556
        k(   10) = (  -0.0000000   0.3333333   0.3333333), wk =   0.0555556
        k(   11) = (  -0.0000000   0.3333333  -0.5000000), wk =   0.1111111
        k(   12) = (  -0.0000000   0.3333333  -0.3333333), wk =   0.0555556
        k(   13) = (   0.0000000  -0.5000000  -0.5000000), wk =   0.0277778
        k(   14) = (   0.1666667   0.1666667   0.1666667), wk =   0.0185185
        k(   15) = (   0.1666667   0.1666667   0.3333333), wk =   0.0555556
        k(   16) = (   0.1666667   0.1666667  -0.5000000), wk =   0.0555556
        k(   17) = (   0.1666667   0.1666667  -0.3333333), wk =   0.0555556
        k(   18) = (   0.1666667   0.1666667  -0.1666667), wk =   0.0555556
        k(   19) = (   0.1666667   0.3333333   0.3333333), wk =   0.0555556
        k(   20) = (   0.1666667   0.3333333  -0.5000000), wk =   0.1111111
        k(   21) = (   0.1666667   0.3333333  -0.3333333), wk =   0.1111111
        k(   22) = (   0.1666667   0.3333333  -0.1666667), wk =   0.1111111
        k(   23) = (   0.1666667  -0.5000000  -0.5000000), wk =   0.0555556
        k(   24) = (   0.1666667  -0.5000000  -0.3333333), wk =   0.1111111
        k(   25) = (   0.1666667  -0.5000000  -0.1666667), wk =   0.0555556
        k(   26) = (   0.1666667  -0.3333333  -0.3333333), wk =   0.0555556
        k(   27) = (   0.3333333   0.3333333   0.3333333), wk =   0.0185185
        k(   28) = (   0.3333333   0.3333333  -0.5000000), wk =   0.0555556
        k(   29) = (   0.3333333   0.3333333  -0.3333333), wk =   0.0555556
        k(   30) = (   0.3333333  -0.5000000  -0.5000000), wk =   0.0555556
        k(   31) = (   0.3333333  -0.5000000  -0.3333333), wk =   0.0555556
        k(   32) = (  -0.5000000  -0.5000000  -0.5000000), wk =   0.0092593

     Dense  grid:    96589 G-vectors     FFT dimensions: (  72,  72,  72)

     Smooth grid:    44965 G-vectors     FFT dimensions: (  54,  54,  54)

     Dynamical RAM for                 wfc:       2.91 MB

     Dynamical RAM for     wfc (w. buffer):      96.15 MB

     Dynamical RAM for           str. fact:       4.42 MB

     Dynamical RAM for           local pot:       0.00 MB

     Dynamical RAM for          nlocal pot:       8.74 MB

     Dynamical RAM for                qrad:       4.82 MB

     Dynamical RAM for          rho,v,vnew:      12.96 MB

     Dynamical RAM for               rhoin:       4.32 MB

     Dynamical RAM for            rho*nmix:      23.58 MB

     Dynamical RAM for           G-vectors:       5.87 MB

     Dynamical RAM for          h,s,v(r/c):       0.21 MB

     Dynamical RAM for          <psi|beta>:       0.05 MB

     Dynamical RAM for                 psi:       5.83 MB

     Dynamical RAM for                hpsi:       5.83 MB

     Dynamical RAM for                spsi:       5.83 MB

     Dynamical RAM for      wfcinit/wfcrot:       5.85 MB

     Dynamical RAM for           addusdens:     282.98 MB

     Dynamical RAM for          addusforce:     298.47 MB

     Dynamical RAM for         addusstress:     296.24 MB

     Estimated static dynamical RAM per process >     157.42 MB

     Estimated max dynamical RAM per process >     479.47 MB

     Check: negative core charge=   -0.000005

     Initial potential from superposition of free atoms

     starting charge      67.0945, renormalised to      68.0000
     Starting wfcs are   54 randomized atomic wfcs
     Checking if some PAW data can be deallocated... 

     total cpu time spent up to now is        1.2 secs

     per-process dynamical memory:   557.1 Mb

     Self-consistent Calculation
[tb_dev] Currently allocated     1.86E+00 Mbytes, locked:    0 /   3
[tb_pin] Currently allocated     0.00E+00 Mbytes, locked:    0 /   0

     iteration #  1     ecut=    60.00 Ry     beta= 0.70
     Davidson diagonalization with overlap

---- Real-time Memory Report at c_bands before calling an iterative solver
           984 MiB given to the printing process from OS
           544 MiB allocation reported by mallinfo(arena+hblkhd)
       1776149 MiB available memory on the node where the printing process lives
     GPU memory used/free/total (MiB): 2281 / 180360 / 182642
------------------
     ethr =  1.00E-02,  avg # of iterations =  1.1

     total cpu time spent up to now is        1.6 secs

     total energy              =    -934.46321649 Ry
     estimated scf accuracy    <       4.42695303 Ry
[tb_dev] Currently allocated     0.00E+00 Mbytes, locked:    0 /   0
[tb_pin] Currently allocated     0.00E+00 Mbytes, locked:    0 /   0

     iteration #  2     ecut=    60.00 Ry     beta= 0.70
     Davidson diagonalization with overlap

---- Real-time Memory Report at c_bands before calling an iterative solver
          1036 MiB given to the printing process from OS
           619 MiB allocation reported by mallinfo(arena+hblkhd)
       1775502 MiB available memory on the node where the printing process lives
     GPU memory used/free/total (MiB): 2281 / 180360 / 182642
------------------
     ethr =  6.51E-03,  avg # of iterations =  8.6

     total cpu time spent up to now is        2.8 secs

     total energy              =    -933.71391721 Ry
     estimated scf accuracy    <      16.36428918 Ry
[tb_dev] Currently allocated     0.00E+00 Mbytes, locked:    0 /   0
[tb_pin] Currently allocated     0.00E+00 Mbytes, locked:    0 /   0

     iteration #  3     ecut=    60.00 Ry     beta= 0.70
     Davidson diagonalization with overlap

---- Real-time Memory Report at c_bands before calling an iterative solver
          1044 MiB given to the printing process from OS
           623 MiB allocation reported by mallinfo(arena+hblkhd)
       1775919 MiB available memory on the node where the printing process lives
     GPU memory used/free/total (MiB): 2283 / 180358 / 182642
------------------
     ethr =  6.51E-03,  avg # of iterations =  6.2

     total cpu time spent up to now is        3.6 secs

     total energy              =    -936.73656076 Ry
     estimated scf accuracy    <       0.05486847 Ry
[tb_dev] Currently allocated     0.00E+00 Mbytes, locked:    0 /   0
[tb_pin] Currently allocated     0.00E+00 Mbytes, locked:    0 /   0

     iteration #  4     ecut=    60.00 Ry     beta= 0.70
     Davidson diagonalization with overlap

---- Real-time Memory Report at c_bands before calling an iterative solver
          1045 MiB given to the printing process from OS
           615 MiB allocation reported by mallinfo(arena+hblkhd)
       1775711 MiB available memory on the node where the printing process lives
     GPU memory used/free/total (MiB): 2283 / 180358 / 182642
------------------
     ethr =  8.07E-05,  avg # of iterations =  8.1

     total cpu time spent up to now is        4.7 secs

     total energy              =    -936.69676599 Ry
     estimated scf accuracy    <       0.29462245 Ry
[tb_dev] Currently allocated     0.00E+00 Mbytes, locked:    0 /   0
[tb_pin] Currently allocated     0.00E+00 Mbytes, locked:    0 /   0

     iteration #  5     ecut=    60.00 Ry     beta= 0.70
     Davidson diagonalization with overlap

---- Real-time Memory Report at c_bands before calling an iterative solver
          1045 MiB given to the printing process from OS
           626 MiB allocation reported by mallinfo(arena+hblkhd)
       1775898 MiB available memory on the node where the printing process lives
     GPU memory used/free/total (MiB): 2283 / 180358 / 182642
------------------
     ethr =  8.07E-05,  avg # of iterations =  8.5

     total cpu time spent up to now is        5.8 secs

     total energy              =    -936.79107330 Ry
     estimated scf accuracy    <       0.56213503 Ry
[tb_dev] Currently allocated     0.00E+00 Mbytes, locked:    0 /   0
[tb_pin] Currently allocated     0.00E+00 Mbytes, locked:    0 /   0

     iteration #  6     ecut=    60.00 Ry     beta= 0.70
     Davidson diagonalization with overlap

---- Real-time Memory Report at c_bands before calling an iterative solver
          1046 MiB given to the printing process from OS
           628 MiB allocation reported by mallinfo(arena+hblkhd)
       1775734 MiB available memory on the node where the printing process lives
     GPU memory used/free/total (MiB): 2283 / 180358 / 182642
------------------
     ethr =  8.07E-05,  avg # of iterations =  6.1

     total cpu time spent up to now is        6.7 secs

     total energy              =    -936.82469215 Ry
     estimated scf accuracy    <       0.04994420 Ry
[tb_dev] Currently allocated     0.00E+00 Mbytes, locked:    0 /   0
[tb_pin] Currently allocated     0.00E+00 Mbytes, locked:    0 /   0

     iteration #  7     ecut=    60.00 Ry     beta= 0.70
     Davidson diagonalization with overlap

---- Real-time Memory Report at c_bands before calling an iterative solver
          1049 MiB given to the printing process from OS
           629 MiB allocation reported by mallinfo(arena+hblkhd)
       1774553 MiB available memory on the node where the printing process lives
     GPU memory used/free/total (MiB): 2283 / 180358 / 182642
------------------
     ethr =  7.34E-05,  avg # of iterations =  5.0

     total cpu time spent up to now is        7.4 secs

     total energy              =    -936.83720655 Ry
     estimated scf accuracy    <       0.00003552 Ry
[tb_dev] Currently allocated     0.00E+00 Mbytes, locked:    0 /   0
[tb_pin] Currently allocated     0.00E+00 Mbytes, locked:    0 /   0

     iteration #  8     ecut=    60.00 Ry     beta= 0.70
     Davidson diagonalization with overlap

---- Real-time Memory Report at c_bands before calling an iterative solver
          1050 MiB given to the printing process from OS
           631 MiB allocation reported by mallinfo(arena+hblkhd)
       1775588 MiB available memory on the node where the printing process lives
     GPU memory used/free/total (MiB): 2283 / 180358 / 182642
------------------
     c_bands:  1 eigenvalues not converged
     ethr =  5.22E-08,  avg # of iterations = 15.5

     total cpu time spent up to now is        9.2 secs

     total energy              =    -936.83814115 Ry
     estimated scf accuracy    <       0.00362517 Ry
[tb_dev] Currently allocated     0.00E+00 Mbytes, locked:    0 /   0
[tb_pin] Currently allocated     0.00E+00 Mbytes, locked:    0 /   0

     iteration #  9     ecut=    60.00 Ry     beta= 0.70
     Davidson diagonalization with overlap

---- Real-time Memory Report at c_bands before calling an iterative solver
          1052 MiB given to the printing process from OS
           632 MiB allocation reported by mallinfo(arena+hblkhd)
       1775487 MiB available memory on the node where the printing process lives
     GPU memory used/free/total (MiB): 2283 / 180358 / 182642
------------------
     ethr =  5.22E-08,  avg # of iterations =  9.0

     total cpu time spent up to now is       10.4 secs

     total energy              =    -936.83823974 Ry
     estimated scf accuracy    <       0.00034096 Ry
[tb_dev] Currently allocated     0.00E+00 Mbytes, locked:    0 /   0
[tb_pin] Currently allocated     0.00E+00 Mbytes, locked:    0 /   0

     iteration # 10     ecut=    60.00 Ry     beta= 0.70
     Davidson diagonalization with overlap

---- Real-time Memory Report at c_bands before calling an iterative solver
          1053 MiB given to the printing process from OS
           633 MiB allocation reported by mallinfo(arena+hblkhd)
       1775660 MiB available memory on the node where the printing process lives
     GPU memory used/free/total (MiB): 2283 / 180358 / 182642
------------------
     ethr =  5.22E-08,  avg # of iterations =  7.9

     total cpu time spent up to now is       11.5 secs

     total energy              =    -936.83838497 Ry
     estimated scf accuracy    <       0.00013741 Ry
[tb_dev] Currently allocated     0.00E+00 Mbytes, locked:    0 /   0
[tb_pin] Currently allocated     0.00E+00 Mbytes, locked:    0 /   0

     iteration # 11     ecut=    60.00 Ry     beta= 0.70
     Davidson diagonalization with overlap

---- Real-time Memory Report at c_bands before calling an iterative solver
          1053 MiB given to the printing process from OS
           634 MiB allocation reported by mallinfo(arena+hblkhd)
       1775360 MiB available memory on the node where the printing process lives
     GPU memory used/free/total (MiB): 2283 / 180358 / 182642
------------------
     ethr =  5.22E-08,  avg # of iterations =  1.1

     total cpu time spent up to now is       11.9 secs

     total energy              =    -936.83835417 Ry
     estimated scf accuracy    <       0.00009469 Ry
[tb_dev] Currently allocated     0.00E+00 Mbytes, locked:    0 /   0
[tb_pin] Currently allocated     0.00E+00 Mbytes, locked:    0 /   0

     iteration # 12     ecut=    60.00 Ry     beta= 0.70
     Davidson diagonalization with overlap

---- Real-time Memory Report at c_bands before calling an iterative solver
          1053 MiB given to the printing process from OS
           633 MiB allocation reported by mallinfo(arena+hblkhd)
       1774546 MiB available memory on the node where the printing process lives
     GPU memory used/free/total (MiB): 2283 / 180358 / 182642
------------------
     ethr =  5.22E-08,  avg # of iterations =  4.7

     total cpu time spent up to now is       12.6 secs

     total energy              =    -936.83836694 Ry
     estimated scf accuracy    <       0.00000507 Ry
[tb_dev] Currently allocated     0.00E+00 Mbytes, locked:    0 /   0
[tb_pin] Currently allocated     0.00E+00 Mbytes, locked:    0 /   0

     iteration # 13     ecut=    60.00 Ry     beta= 0.70
     Davidson diagonalization with overlap

---- Real-time Memory Report at c_bands before calling an iterative solver
          1053 MiB given to the printing process from OS
           633 MiB allocation reported by mallinfo(arena+hblkhd)
       1775498 MiB available memory on the node where the printing process lives
     GPU memory used/free/total (MiB): 2283 / 180358 / 182642
------------------
     ethr =  7.46E-09,  avg # of iterations =  5.0

     total cpu time spent up to now is       13.4 secs

     total energy              =    -936.83836862 Ry
     estimated scf accuracy    <       0.00000016 Ry
[tb_dev] Currently allocated     0.00E+00 Mbytes, locked:    0 /   0
[tb_pin] Currently allocated     0.00E+00 Mbytes, locked:    0 /   0

     iteration # 14     ecut=    60.00 Ry     beta= 0.70
     Davidson diagonalization with overlap

---- Real-time Memory Report at c_bands before calling an iterative solver
          1053 MiB given to the printing process from OS
           634 MiB allocation reported by mallinfo(arena+hblkhd)
       1775402 MiB available memory on the node where the printing process lives
     GPU memory used/free/total (MiB): 2283 / 180358 / 182642
------------------
     ethr =  2.32E-10,  avg # of iterations =  7.8

     total cpu time spent up to now is       14.4 secs

     total energy              =    -936.83836887 Ry
     estimated scf accuracy    <       0.00000025 Ry
[tb_dev] Currently allocated     0.00E+00 Mbytes, locked:    0 /   0
[tb_pin] Currently allocated     0.00E+00 Mbytes, locked:    0 /   0

     iteration # 15     ecut=    60.00 Ry     beta= 0.70
     Davidson diagonalization with overlap

---- Real-time Memory Report at c_bands before calling an iterative solver
          1053 MiB given to the printing process from OS
           634 MiB allocation reported by mallinfo(arena+hblkhd)
       1775473 MiB available memory on the node where the printing process lives
     GPU memory used/free/total (MiB): 2283 / 180358 / 182642
------------------
     ethr =  2.32E-10,  avg # of iterations =  1.8

     total cpu time spent up to now is       14.9 secs

     total energy              =    -936.83836883 Ry
     estimated scf accuracy    <       0.00000011 Ry
[tb_dev] Currently allocated     0.00E+00 Mbytes, locked:    0 /   0
[tb_pin] Currently allocated     0.00E+00 Mbytes, locked:    0 /   0

     iteration # 16     ecut=    60.00 Ry     beta= 0.70
     Davidson diagonalization with overlap

---- Real-time Memory Report at c_bands before calling an iterative solver
          1053 MiB given to the printing process from OS
           634 MiB allocation reported by mallinfo(arena+hblkhd)
       1775473 MiB available memory on the node where the printing process lives
     GPU memory used/free/total (MiB): 2283 / 180358 / 182642
------------------
     ethr =  1.55E-10,  avg # of iterations =  4.6

     total cpu time spent up to now is       15.6 secs

     total energy              =    -936.83836886 Ry
     estimated scf accuracy    <          3.9E-09 Ry
[tb_dev] Currently allocated     0.00E+00 Mbytes, locked:    0 /   0
[tb_pin] Currently allocated     0.00E+00 Mbytes, locked:    0 /   0

     iteration # 17     ecut=    60.00 Ry     beta= 0.70
     Davidson diagonalization with overlap

---- Real-time Memory Report at c_bands before calling an iterative solver
          1053 MiB given to the printing process from OS
           634 MiB allocation reported by mallinfo(arena+hblkhd)
       1775564 MiB available memory on the node where the printing process lives
     GPU memory used/free/total (MiB): 2283 / 180358 / 182642
------------------
     ethr =  5.73E-12,  avg # of iterations =  5.5

     total cpu time spent up to now is       16.4 secs

     total energy              =    -936.83836886 Ry
     estimated scf accuracy    <          5.8E-09 Ry
[tb_dev] Currently allocated     0.00E+00 Mbytes, locked:    0 /   0
[tb_pin] Currently allocated     0.00E+00 Mbytes, locked:    0 /   0

     iteration # 18     ecut=    60.00 Ry     beta= 0.70
     Davidson diagonalization with overlap

---- Real-time Memory Report at c_bands before calling an iterative solver
          1053 MiB given to the printing process from OS
           634 MiB allocation reported by mallinfo(arena+hblkhd)
       1774340 MiB available memory on the node where the printing process lives
     GPU memory used/free/total (MiB): 2283 / 180358 / 182642
------------------
     ethr =  5.73E-12,  avg # of iterations =  4.4

     total cpu time spent up to now is       17.1 secs

     total energy              =    -936.83836887 Ry
     estimated scf accuracy    <          2.6E-11 Ry
[tb_dev] Currently allocated     0.00E+00 Mbytes, locked:    0 /   0
[tb_pin] Currently allocated     0.00E+00 Mbytes, locked:    0 /   0

     iteration # 19     ecut=    60.00 Ry     beta= 0.70
     Davidson diagonalization with overlap

---- Real-time Memory Report at c_bands before calling an iterative solver
          1053 MiB given to the printing process from OS
           634 MiB allocation reported by mallinfo(arena+hblkhd)
       1775445 MiB available memory on the node where the printing process lives
     GPU memory used/free/total (MiB): 2283 / 180358 / 182642
------------------
     ethr =  1.00E-13,  avg # of iterations =  9.9

     total cpu time spent up to now is       18.3 secs

     total energy              =    -936.83836887 Ry
     estimated scf accuracy    <          1.1E-09 Ry
[tb_dev] Currently allocated     0.00E+00 Mbytes, locked:    0 /   0
[tb_pin] Currently allocated     0.00E+00 Mbytes, locked:    0 /   0

     iteration # 20     ecut=    60.00 Ry     beta= 0.70
     Davidson diagonalization with overlap

---- Real-time Memory Report at c_bands before calling an iterative solver
          1053 MiB given to the printing process from OS
           634 MiB allocation reported by mallinfo(arena+hblkhd)
       1774143 MiB available memory on the node where the printing process lives
     GPU memory used/free/total (MiB): 2283 / 180358 / 182642
------------------
     ethr =  1.00E-13,  avg # of iterations =  3.8

     total cpu time spent up to now is       19.0 secs

     total energy              =    -936.83836887 Ry
     estimated scf accuracy    <          5.1E-10 Ry
[tb_dev] Currently allocated     0.00E+00 Mbytes, locked:    0 /   0
[tb_pin] Currently allocated     0.00E+00 Mbytes, locked:    0 /   0

     iteration # 21     ecut=    60.00 Ry     beta= 0.70
     Davidson diagonalization with overlap

---- Real-time Memory Report at c_bands before calling an iterative solver
          1053 MiB given to the printing process from OS
           634 MiB allocation reported by mallinfo(arena+hblkhd)
       1775363 MiB available memory on the node where the printing process lives
     GPU memory used/free/total (MiB): 2283 / 180358 / 182642
------------------
     ethr =  1.00E-13,  avg # of iterations =  7.4

     total cpu time spent up to now is       20.0 secs

     total energy              =    -936.83836887 Ry
     estimated scf accuracy    <          7.7E-12 Ry
[tb_dev] Currently allocated     0.00E+00 Mbytes, locked:    0 /   0
[tb_pin] Currently allocated     0.00E+00 Mbytes, locked:    0 /   0

     iteration # 22     ecut=    60.00 Ry     beta= 0.70
     Davidson diagonalization with overlap

---- Real-time Memory Report at c_bands before calling an iterative solver
          1053 MiB given to the printing process from OS
           634 MiB allocation reported by mallinfo(arena+hblkhd)
       1774461 MiB available memory on the node where the printing process lives
     GPU memory used/free/total (MiB): 2283 / 180358 / 182642
------------------
     ethr =  1.00E-13,  avg # of iterations =  1.0

     total cpu time spent up to now is       20.4 secs

     total energy              =    -936.83836887 Ry
     estimated scf accuracy    <          6.7E-12 Ry
[tb_dev] Currently allocated     0.00E+00 Mbytes, locked:    0 /   0
[tb_pin] Currently allocated     0.00E+00 Mbytes, locked:    0 /   0

     iteration # 23     ecut=    60.00 Ry     beta= 0.70
     Davidson diagonalization with overlap

---- Real-time Memory Report at c_bands before calling an iterative solver
          1053 MiB given to the printing process from OS
           633 MiB allocation reported by mallinfo(arena+hblkhd)
       1774497 MiB available memory on the node where the printing process lives
     GPU memory used/free/total (MiB): 2283 / 180358 / 182642
------------------
     ethr =  1.00E-13,  avg # of iterations =  1.0

     total cpu time spent up to now is       20.8 secs

     total energy              =    -936.83836887 Ry
     estimated scf accuracy    <          3.1E-12 Ry
[tb_dev] Currently allocated     0.00E+00 Mbytes, locked:    0 /   0
[tb_pin] Currently allocated     0.00E+00 Mbytes, locked:    0 /   0

     iteration # 24     ecut=    60.00 Ry     beta= 0.70
     Davidson diagonalization with overlap

---- Real-time Memory Report at c_bands before calling an iterative solver
          1053 MiB given to the printing process from OS
           634 MiB allocation reported by mallinfo(arena+hblkhd)
       1775603 MiB available memory on the node where the printing process lives
     GPU memory used/free/total (MiB): 2283 / 180358 / 182642
------------------
     ethr =  1.00E-13,  avg # of iterations =  1.0

     total cpu time spent up to now is       21.2 secs

     total energy              =    -936.83836887 Ry
     estimated scf accuracy    <          2.5E-12 Ry
[tb_dev] Currently allocated     0.00E+00 Mbytes, locked:    0 /   0
[tb_pin] Currently allocated     0.00E+00 Mbytes, locked:    0 /   0

     iteration # 25     ecut=    60.00 Ry     beta= 0.70
     Davidson diagonalization with overlap

---- Real-time Memory Report at c_bands before calling an iterative solver
          1053 MiB given to the printing process from OS
           633 MiB allocation reported by mallinfo(arena+hblkhd)
       1775636 MiB available memory on the node where the printing process lives
     GPU memory used/free/total (MiB): 2283 / 180358 / 182642
------------------
     ethr =  1.00E-13,  avg # of iterations =  1.0

     total cpu time spent up to now is       21.6 secs

     End of self-consistent calculation

          k = 0.0000 0.0000 0.0000 (  5595 PWs)   bands (ev):

   -46.8728 -46.8570 -34.6607 -34.6578 -23.2200 -23.2200 -23.1520 -23.0540
   -23.0540 -22.9651  -9.6986  -9.0277  -9.0277  -8.0382  -7.8704  -7.8704
     2.7126   2.7126   2.9036   2.9611   2.9611   3.8988   5.1072   5.1072
     5.1147   5.9251   6.4558   6.4558   6.5706   6.5706   6.6474   6.7513
     7.1936   7.1936

     occupation numbers 
     1.0000   1.0000   1.0000   1.0000   1.0000   1.0000   1.0000   1.0000
     1.0000   1.0000   1.0000   1.0000   1.0000   1.0000   1.0000   1.0000
     1.0000   1.0000   1.0000   1.0000   1.0000   1.0000   1.0000   1.0000
     1.0000   1.0000   1.0000   1.0000   1.0000   1.0000   1.0000   1.0000
     1.0000   1.0000

          k =-0.0000-0.2025 0.0664 (  5629 PWs)   bands (ev):

   -46.8717 -46.8581 -34.6606 -34.6580 -23.2108 -23.2094 -23.1392 -23.0668
   -23.0657 -22.9775  -9.5876  -8.9651  -8.9611  -8.1210  -7.9812  -7.9606
     2.6605   2.7520   3.0536   3.2259   3.2321   3.9522   4.7786   4.8730
     4.9293   5.9106   6.1797   6.4374   6.4383   6.7155   6.7643   6.8490
     7.0633   7.1291

     occupation numbers 
     1.0000   1.0000   1.0000   1.0000   1.0000   1.0000   1.0000   1.0000
     1.0000   1.0000   1.0000   1.0000   1.0000   1.0000   1.0000   1.0000
     1.0000   1.0000   1.0000   1.0000   1.0000   1.0000   1.0000   1.0000
     1.0000   1.0000   1.0000   1.0000   1.0000   1.0000   1.0000   1.0000
     1.0000   1.0000

          k =-0.0000-0.4051 0.1329 (  5624 PWs)   bands (ev):

   -46.8688 -46.8609 -34.6601 -34.6585 -23.1839 -23.1802 -23.1048 -23.1005
   -23.0971 -23.0115  -9.2813  -8.7977  -8.7777  -8.3819  -8.2336  -8.1913
     2.8221   2.9730   3.3395   3.7463   3.7873   4.0608   4.0936   4.4794
     4.6750   5.4204   5.7020   6.0154   6.6365   6.7790   6.7853   6.8946
     7.0177   7.1421

     occupation numbers 
     1.0000   1.0000   1.0000   1.0000   1.0000   1.0000   1.0000   1.0000
     1.0000   1.0000   1.0000   1.0000   1.0000   1.0000   1.0000   1.0000
     1.0000   1.0000   1.0000   1.0000   1.0000   1.0000   1.0000   1.0000
     1.0000   1.0000   1.0000   1.0000   1.0000   1.0000   1.0000   1.0000
     1.0000   1.0000

          k = 0.0000 0.6076-0.1993 (  5630 PWs)   bands (ev):

   -46.8649 -46.8649 -34.6593 -34.6593 -23.1440 -23.1440 -23.1393 -23.1393
   -23.0580 -23.0580  -8.8687  -8.8687  -8.5391  -8.5391  -8.4456  -8.4456
     3.1929   3.1929   3.4543   3.4543   3.9651   3.9651   4.4369   4.4369
     4.8947   4.8947   5.3367   5.3367   6.8256   6.8256   6.9305   6.9305
     7.0114   7.0114

     occupation numbers 
     1.0000   1.0000   1.0000   1.0000   1.0000   1.0000   1.0000   1.0000
     1.0000   1.0000   1.0000   1.0000   1.0000   1.0000   1.0000   1.0000
     1.0000   1.0000   1.0000   1.0000   1.0000   1.0000   1.0000   1.0000
     1.0000   1.0000   1.0000   1.0000   1.0000   1.0000   1.0000   1.0000
     1.0000   1.0000

          k =-0.1754-0.1013 0.1329 (  5614 PWs)   bands (ev):

   -46.8715 -46.8583 -34.6605 -34.6580 -23.2228 -23.2006 -23.1277 -23.0913
   -23.0519 -22.9754  -9.5786  -9.0065  -8.8646  -8.2458  -7.9754  -7.9097
     2.6991   2.7650   2.9358   3.2553   3.3521   4.1060   4.3830   5.0608
     5.1094   5.9104   6.1043   6.3148   6.5128   6.5239   6.6732   6.8354
     7.0922   7.1391

     occupation numbers 
     1.0000   1.0000   1.0000   1.0000   1.0000   1.0000   1.0000   1.0000
     1.0000   1.0000   1.0000   1.0000   1.0000   1.0000   1.0000   1.0000
     1.0000   1.0000   1.0000   1.0000   1.0000   1.0000   1.0000   1.0000
     1.0000   1.0000   1.0000   1.0000   1.0000   1.0000   1.0000   1.0000
     1.0000   1.0000

          k =-0.1754-0.3038 0.1993 (  5608 PWs)   bands (ev):

   -46.8694 -46.8603 -34.6602 -34.6584 -23.2153 -23.1836 -23.1342 -23.0888
   -23.0628 -22.9909  -9.3981  -8.9248  -8.6670  -8.5106  -8.0866  -8.0396
     2.6452   2.9155   3.2829   3.5023   3.6639   3.8938   4.4326   4.6548
     5.0293   5.5841   5.9191   6.2479   6.3679   6.5114   6.6596   6.8754
     6.9831   7.1346

     occupation numbers 
     1.0000   1.0000   1.0000   1.0000   1.0000   1.0000   1.0000   1.0000
     1.0000   1.0000   1.0000   1.0000   1.0000   1.0000   1.0000   1.0000
     1.0000   1.0000   1.0000   1.0000   1.0000   1.0000   1.0000   1.0000
     1.0000   1.0000   1.0000   1.0000   1.0000   1.0000   1.0000   1.0000
     1.0000   1.0000

          k =-0.1754 0.7089-0.1329 (  5619 PWs)   bands (ev):

   -46.8662 -46.8635 -34.6596 -34.6591 -23.1882 -23.1768 -23.1510 -23.0953
   -23.0444 -23.0250  -9.0786  -8.8801  -8.7350  -8.3586  -8.3430  -8.2737
     2.8286   3.0521   3.2900   3.7309   3.9508   4.0321   4.2774   4.5451
     4.7705   5.1987   5.6259   5.9551   6.4412   6.6784   6.7193   6.8080
     6.9962   7.0937

     occupation numbers 
     1.0000   1.0000   1.0000   1.0000   1.0000   1.0000   1.0000   1.0000
     1.0000   1.0000   1.0000   1.0000   1.0000   1.0000   1.0000   1.0000
     1.0000   1.0000   1.0000   1.0000   1.0000   1.0000   1.0000   1.0000
     1.0000   1.0000   1.0000   1.0000   1.0000   1.0000   1.0000   1.0000
     1.0000   1.0000

          k =-0.1754 0.5064-0.0664 (  5616 PWs)   bands (ev):

   -46.8671 -46.8626 -34.6598 -34.6589 -23.2062 -23.1469 -23.1387 -23.1093
   -23.0703 -23.0091  -9.1875  -8.7379  -8.6486  -8.5340  -8.4530  -8.1033
     2.7658   3.2039   3.3366   3.4676   3.6854   4.1094   4.3771   4.5858
     4.8635   5.2973   5.5459   6.1755   6.3549   6.5138   6.7748   6.9368
     6.9964   7.1225

     occupation numbers 
     1.0000   1.0000   1.0000   1.0000   1.0000   1.0000   1.0000   1.0000
     1.0000   1.0000   1.0000   1.0000   1.0000   1.0000   1.0000   1.0000
     1.0000   1.0000   1.0000   1.0000   1.0000   1.0000   1.0000   1.0000
     1.0000   1.0000   1.0000   1.0000   1.0000   1.0000   1.0000   1.0000
     1.0000   1.0000

          k =-0.1754 0.3038 0.0000 (  5624 PWs)   bands (ev):

   -46.8701 -46.8596 -34.6603 -34.6583 -23.2159 -23.1804 -23.1141 -23.1018
   -23.0740 -22.9884  -9.4401  -8.9066  -8.8025  -8.3041  -8.1970  -7.9678
     2.6788   2.8780   3.1809   3.2866   3.7534   4.0767   4.2191   4.5004
     5.1454   5.7621   6.0352   6.2314   6.4792   6.5756   6.7605   6.8923
     6.9564   7.1691

     occupation numbers 
     1.0000   1.0000   1.0000   1.0000   1.0000   1.0000   1.0000   1.0000
     1.0000   1.0000   1.0000   1.0000   1.0000   1.0000   1.0000   1.0000
     1.0000   1.0000   1.0000   1.0000   1.0000   1.0000   1.0000   1.0000
     1.0000   1.0000   1.0000   1.0000   1.0000   1.0000   1.0000   1.0000
     1.0000   1.0000

          k =-0.3508-0.2025 0.2658 (  5612 PWs)   bands (ev):

   -46.8688 -46.8609 -34.6601 -34.6585 -23.2286 -23.1925 -23.1793 -23.0489
   -23.0453 -22.9805  -9.4079  -8.9635  -8.7670  -8.4276  -8.0327  -7.9922
     2.6466   2.7930   3.0353   3.1684   3.7793   4.1055   4.7494   4.9684
     5.3838   5.6506   5.8947   6.0748   6.1506   6.4607   6.4990   6.7884
     6.8002   7.0498

     occupation numbers 
     1.0000   1.0000   1.0000   1.0000   1.0000   1.0000   1.0000   1.0000
     1.0000   1.0000   1.0000   1.0000   1.0000   1.0000   1.0000   1.0000
     1.0000   1.0000   1.0000   1.0000   1.0000   1.0000   1.0000   1.0000
     1.0000   1.0000   1.0000   1.0000   1.0000   1.0000   1.0000   1.0000
     1.0000   1.0000

          k =-0.3508 0.8102-0.0664 (  5627 PWs)   bands (ev):

   -46.8671 -46.8626 -34.6598 -34.6589 -23.2202 -23.2114 -23.1807 -23.0592
   -23.0130 -22.9928  -9.2705  -8.9814  -8.8809  -8.2187  -8.1379  -8.1030
     2.6020   2.7522   2.9680   3.3093   4.0177   4.3689   4.5577   4.9962
     5.2130   5.5990   5.8555   6.0080   6.1478   6.3309   6.5012   6.6584
     6.8385   7.0748

     occupation numbers 
     1.0000   1.0000   1.0000   1.0000   1.0000   1.0000   1.0000   1.0000
     1.0000   1.0000   1.0000   1.0000   1.0000   1.0000   1.0000   1.0000
     1.0000   1.0000   1.0000   1.0000   1.0000   1.0000   1.0000   1.0000
     1.0000   1.0000   1.0000   1.0000   1.0000   1.0000   1.0000   1.0000
     1.0000   1.0000

          k =-0.3508 0.6076 0.0000 (  5630 PWs)   bands (ev):

   -46.8648 -46.8648 -34.6593 -34.6593 -23.2208 -23.1907 -23.1486 -23.0932
   -23.0260 -23.0008  -9.1172  -9.0085  -8.7115  -8.3967  -8.3029  -8.0922
     2.6276   2.8342   3.2659   3.6172   3.9289   4.0048   4.4770   4.8597
     5.0708   5.4197   5.7456   5.9424   6.3225   6.3801   6.5405   6.8153
     6.8846   7.1067

     occupation numbers 
     1.0000   1.0000   1.0000   1.0000   1.0000   1.0000   1.0000   1.0000
     1.0000   1.0000   1.0000   1.0000   1.0000   1.0000   1.0000   1.0000
     1.0000   1.0000   1.0000   1.0000   1.0000   1.0000   1.0000   1.0000
     1.0000   1.0000   1.0000   1.0000   1.0000   1.0000   1.0000   1.0000
     1.0000   1.0000

          k = 0.5262 0.3038-0.3987 (  5630 PWs)   bands (ev):

   -46.8675 -46.8622 -34.6599 -34.6588 -23.2318 -23.2244 -23.1929 -23.0457
   -23.0003 -22.9805  -9.3423  -9.0262  -8.9297  -8.1659  -8.0563  -8.0332
     2.6110   2.6345   2.7815   2.9755   4.3384   4.5877   4.8252   5.1985
     5.3079   5.4091   5.8379   5.9262   6.1427   6.2479   6.5320   6.5894
     6.7476   7.0044

     occupation numbers 
     1.0000   1.0000   1.0000   1.0000   1.0000   1.0000   1.0000   1.0000
     1.0000   1.0000   1.0000   1.0000   1.0000   1.0000   1.0000   1.0000
     1.0000   1.0000   1.0000   1.0000   1.0000   1.0000   1.0000   1.0000
     1.0000   1.0000   1.0000   1.0000   1.0000   1.0000   1.0000   1.0000
     1.0000   1.0000

          k =-0.0000 0.0000 0.1993 (  5619 PWs)   bands (ev):

   -46.8717 -46.8581 -34.6605 -34.6580 -23.2093 -23.2093 -23.1403 -23.0655
   -23.0655 -22.9785  -9.5980  -8.9572  -8.9572  -8.1630  -7.9568  -7.9568
     2.8049   2.8049   3.0556   3.1812   3.1812   3.9952   4.9001   4.9013
     4.9013   6.0357   6.1056   6.1056   6.3610   6.5717   6.5717   6.8039
     7.2137   7.2137

     occupation numbers 
     1.0000   1.0000   1.0000   1.0000   1.0000   1.0000   1.0000   1.0000
     1.0000   1.0000   1.0000   1.0000   1.0000   1.0000   1.0000   1.0000
     1.0000   1.0000   1.0000   1.0000   1.0000   1.0000   1.0000   1.0000
     1.0000   1.0000   1.0000   1.0000   1.0000   1.0000   1.0000   1.0000
     1.0000   1.0000

          k =-0.0000-0.2025 0.2658 (  5594 PWs)   bands (ev):

   -46.8701 -46.8596 -34.6603 -34.6583 -23.2162 -23.1773 -23.1161 -23.0992
   -23.0750 -22.9893  -9.4557  -8.8929  -8.7987  -8.3610  -8.1554  -7.9726
     2.7109   2.9388   3.2542   3.4987   3.6271   4.1380   4.4138   4.5057
     4.9280   5.5049   5.9373   6.2078   6.2596   6.5830   6.7468   6.7912
     7.0896   7.1442

     occupation numbers 
     1.0000   1.0000   1.0000   1.0000   1.0000   1.0000   1.0000   1.0000
     1.0000   1.0000   1.0000   1.0000   1.0000   1.0000   1.0000   1.0000
     1.0000   1.0000   1.0000   1.0000   1.0000   1.0000   1.0000   1.0000
     1.0000   1.0000   1.0000   1.0000   1.0000   1.0000   1.0000   1.0000
     1.0000   1.0000

          k = 0.0000 0.8102-0.0664 (  5599 PWs)   bands (ev):

   -46.8671 -46.8626 -34.6597 -34.6589 -23.2072 -23.1435 -23.1349 -23.1122
   -23.0725 -23.0090  -9.1944  -8.7307  -8.6940  -8.5213  -8.4166  -8.1192
     2.7217   3.1474   3.5799   3.7202   3.8527   4.1253   4.1688   4.5896
     4.7753   4.8941   5.5924   6.1121   6.4409   6.5290   6.7930   6.8581
     6.9845   7.0322

     occupation numbers 
     1.0000   1.0000   1.0000   1.0000   1.0000   1.0000   1.0000   1.0000
     1.0000   1.0000   1.0000   1.0000   1.0000   1.0000   1.0000   1.0000
     1.0000   1.0000   1.0000   1.0000   1.0000   1.0000   1.0000   1.0000
     1.0000   1.0000   1.0000   1.0000   1.0000   1.0000   1.0000   1.0000
     1.0000   1.0000

          k = 0.0000 0.6076 0.0000 (  5609 PWs)   bands (ev):

   -46.8662 -46.8635 -34.6596 -34.6591 -23.1857 -23.1780 -23.1543 -23.0927
   -23.0439 -23.0262  -9.0818  -8.8804  -8.7264  -8.3720  -8.3452  -8.2632
     2.9650   3.1170   3.1927   3.4068   3.8376   4.1129   4.4057   4.6682
     4.9852   5.1739   5.6202   5.8021   6.4297   6.6586   6.7133   6.8578
     6.8908   7.1159

     occupation numbers 
     1.0000   1.0000   1.0000   1.0000   1.0000   1.0000   1.0000   1.0000
     1.0000   1.0000   1.0000   1.0000   1.0000   1.0000   1.0000   1.0000
     1.0000   1.0000   1.0000   1.0000   1.0000   1.0000   1.0000   1.0000
     1.0000   1.0000   1.0000   1.0000   1.0000   1.0000   1.0000   1.0000
     1.0000   1.0000

          k = 0.0000 0.4051 0.0664 (  5629 PWs)   bands (ev):

   -46.8694 -46.8603 -34.6602 -34.6584 -23.2144 -23.1854 -23.1350 -23.0882
   -23.0620 -22.9909  -9.3932  -8.9329  -8.6480  -8.5209  -8.0963  -8.0293
     2.7639   2.8995   2.9965   3.5889   3.6042   3.8301   4.4347   4.7946
     5.0286   5.7925   5.9587   6.2250   6.3537   6.4783   6.6365   6.8760
     6.9737   7.1397

     occupation numbers 
     1.0000   1.0000   1.0000   1.0000   1.0000   1.0000   1.0000   1.0000
     1.0000   1.0000   1.0000   1.0000   1.0000   1.0000   1.0000   1.0000
     1.0000   1.0000   1.0000   1.0000   1.0000   1.0000   1.0000   1.0000
     1.0000   1.0000   1.0000   1.0000   1.0000   1.0000   1.0000   1.0000
     1.0000   1.0000

          k =-0.1754-0.1013 0.3322 (  5602 PWs)   bands (ev):

   -46.8694 -46.8603 -34.6602 -34.6584 -23.2141 -23.1831 -23.1333 -23.0897
   -23.0617 -22.9921  -9.4140  -8.9142  -8.6415  -8.5533  -8.1009  -8.0209
     2.8259   2.9228   3.2940   3.5862   3.6206   3.9068   4.4808   4.8255
     4.9082   5.5382   5.7335   6.2186   6.2493   6.3703   6.4834   6.8474
     7.0160   7.1373

     occupation numbers 
     1.0000   1.0000   1.0000   1.0000   1.0000   1.0000   1.0000   1.0000
     1.0000   1.0000   1.0000   1.0000   1.0000   1.0000   1.0000   1.0000
     1.0000   1.0000   1.0000   1.0000   1.0000   1.0000   1.0000   1.0000
     1.0000   1.0000   1.0000   1.0000   1.0000   1.0000   1.0000   1.0000
     1.0000   1.0000

          k =-0.1754 0.9115 0.0000 (  5615 PWs)   bands (ev):

   -46.8675 -46.8622 -34.6598 -34.6588 -23.2195 -23.1776 -23.1594 -23.0790
   -23.0461 -22.9954  -9.2805  -8.8372  -8.8071  -8.3938  -8.2843  -8.0414
     2.6873   3.0007   3.2470   3.6864   3.7589   4.1494   4.3439   4.7952
     5.0493   5.3690   5.8030   5.9685   6.2212   6.3589   6.5473   6.7626
     6.9094   7.0367

     occupation numbers 
     1.0000   1.0000   1.0000   1.0000   1.0000   1.0000   1.0000   1.0000
     1.0000   1.0000   1.0000   1.0000   1.0000   1.0000   1.0000   1.0000
     1.0000   1.0000   1.0000   1.0000   1.0000   1.0000   1.0000   1.0000
     1.0000   1.0000   1.0000   1.0000   1.0000   1.0000   1.0000   1.0000
     1.0000   1.0000

          k =-0.1754 0.7089 0.0664 (  5622 PWs)   bands (ev):

   -46.8648 -46.8648 -34.6593 -34.6593 -23.2100 -23.2088 -23.1198 -23.1180
   -23.0118 -23.0111  -9.0842  -9.0695  -8.6271  -8.5240  -8.1737  -8.1565
     2.7028   2.8250   3.2566   3.5117   3.9632   4.3399   4.3975   4.6838
     5.0472   5.3982   5.8827   6.0029   6.0885   6.3655   6.5710   6.7216
     6.9165   7.0345

     occupation numbers 
     1.0000   1.0000   1.0000   1.0000   1.0000   1.0000   1.0000   1.0000
     1.0000   1.0000   1.0000   1.0000   1.0000   1.0000   1.0000   1.0000
     1.0000   1.0000   1.0000   1.0000   1.0000   1.0000   1.0000   1.0000
     1.0000   1.0000   1.0000   1.0000   1.0000   1.0000   1.0000   1.0000
     1.0000   1.0000

          k =-0.1754 0.5064 0.1329 (  5621 PWs)   bands (ev):

   -46.8675 -46.8622 -34.6599 -34.6588 -23.2195 -23.1789 -23.1613 -23.0789
   -23.0451 -22.9950  -9.2673  -8.8423  -8.7961  -8.3932  -8.2936  -8.0335
     2.6512   3.0006   3.1074   3.4145   3.7719   4.1733   4.3332   4.9329
     5.0579   5.6063   5.7504   6.0558   6.3233   6.4994   6.5838   6.7177
     6.9025   7.1219

     occupation numbers 
     1.0000   1.0000   1.0000   1.0000   1.0000   1.0000   1.0000   1.0000
     1.0000   1.0000   1.0000   1.0000   1.0000   1.0000   1.0000   1.0000
     1.0000   1.0000   1.0000   1.0000   1.0000   1.0000   1.0000   1.0000
     1.0000   1.0000   1.0000   1.0000   1.0000   1.0000   1.0000   1.0000
     1.0000   1.0000

          k = 0.7016 0.4051-0.3322 (  5623 PWs)   bands (ev):

   -46.8671 -46.8626 -34.6598 -34.6589 -23.2192 -23.2110 -23.1810 -23.0581
   -23.0132 -22.9937  -9.2814  -8.9878  -8.8708  -8.2220  -8.1502  -8.0924
     2.7675   2.8228   2.8854   3.2424   4.1251   4.2974   4.6559   4.9518
     5.3955   5.4925   5.8355   5.8946   6.1412   6.2805   6.4396   6.5416
     6.7051   7.0679

     occupation numbers 
     1.0000   1.0000   1.0000   1.0000   1.0000   1.0000   1.0000   1.0000
     1.0000   1.0000   1.0000   1.0000   1.0000   1.0000   1.0000   1.0000
     1.0000   1.0000   1.0000   1.0000   1.0000   1.0000   1.0000   1.0000
     1.0000   1.0000   1.0000   1.0000   1.0000   1.0000   1.0000   1.0000
     1.0000   1.0000

          k = 0.7016 0.2025-0.2658 (  5630 PWs)   bands (ev):

   -46.8662 -46.8635 -34.6596 -34.6591 -23.2233 -23.2215 -23.1597 -23.0774
   -23.0006 -22.9952  -9.2105  -9.0692  -8.7873  -8.3291  -8.1300  -8.0706
     2.6237   2.6568   3.0193   3.5180   3.8114   4.5595   4.7066   4.8874
     5.3706   5.5033   5.7242   5.8433   6.1182   6.2884   6.5421   6.6213
     6.7655   7.0592

     occupation numbers 
     1.0000   1.0000   1.0000   1.0000   1.0000   1.0000   1.0000   1.0000
     1.0000   1.0000   1.0000   1.0000   1.0000   1.0000   1.0000   1.0000
     1.0000   1.0000   1.0000   1.0000   1.0000   1.0000   1.0000   1.0000
     1.0000   1.0000   1.0000   1.0000   1.0000   1.0000   1.0000   1.0000
     1.0000   1.0000

          k = 0.7016-0.0000-0.1993 (  5632 PWs)   bands (ev):

   -46.8648 -46.8648 -34.6593 -34.6593 -23.2096 -23.2096 -23.1193 -23.1193
   -23.0111 -23.0111  -9.0732  -9.0732  -8.5805  -8.5805  -8.1609  -8.1609
     2.7200   2.7200   3.3906   3.3906   4.0935   4.0935   4.5653   4.5653
     5.2048   5.2048   5.9708   5.9708   6.3014   6.3014   6.6618   6.6618
     7.0115   7.0115

     occupation numbers 
     1.0000   1.0000   1.0000   1.0000   1.0000   1.0000   1.0000   1.0000
     1.0000   1.0000   1.0000   1.0000   1.0000   1.0000   1.0000   1.0000
     1.0000   1.0000   1.0000   1.0000   1.0000   1.0000   1.0000   1.0000
     1.0000   1.0000   1.0000   1.0000   1.0000   1.0000   1.0000   1.0000
     1.0000   1.0000

          k = 0.5262 0.3038-0.1993 (  5617 PWs)   bands (ev):

   -46.8671 -46.8626 -34.6598 -34.6589 -23.2194 -23.2116 -23.1817 -23.0583
   -23.0129 -22.9933  -9.2718  -8.9841  -8.8754  -8.2241  -8.1405  -8.0965
     2.6934   2.8224   2.8846   3.1108   4.0737   4.3894   4.6662   4.9192
     5.3460   5.4676   5.9192   6.1438   6.2118   6.2743   6.5167   6.5224
     6.6999   7.0911

     occupation numbers 
     1.0000   1.0000   1.0000   1.0000   1.0000   1.0000   1.0000   1.0000
     1.0000   1.0000   1.0000   1.0000   1.0000   1.0000   1.0000   1.0000
     1.0000   1.0000   1.0000   1.0000   1.0000   1.0000   1.0000   1.0000
     1.0000   1.0000   1.0000   1.0000   1.0000   1.0000   1.0000   1.0000
     1.0000   1.0000

          k =-0.0000 0.0000 0.3987 (  5574 PWs)   bands (ev):

   -46.8688 -46.8609 -34.6600 -34.6585 -23.1797 -23.1797 -23.1078 -23.0967
   -23.0967 -23.0144  -9.3169  -8.7605  -8.7605  -8.4917  -8.1848  -8.1848
     3.1321   3.1321   3.4393   3.7404   3.7404   4.3299   4.3457   4.3457
     4.4287   5.3804   5.3804   5.7089   6.3054   6.6576   6.6576   6.7751
     7.1173   7.1173

     occupation numbers 
     1.0000   1.0000   1.0000   1.0000   1.0000   1.0000   1.0000   1.0000
     1.0000   1.0000   1.0000   1.0000   1.0000   1.0000   1.0000   1.0000
     1.0000   1.0000   1.0000   1.0000   1.0000   1.0000   1.0000   1.0000
     1.0000   1.0000   1.0000   1.0000   1.0000   1.0000   1.0000   1.0000
     1.0000   1.0000

          k = 0.0000 1.0127 0.0664 (  5599 PWs)   bands (ev):

   -46.8671 -46.8626 -34.6597 -34.6589 -23.2054 -23.1431 -23.1345 -23.1102
   -23.0736 -23.0104  -9.2156  -8.7362  -8.6721  -8.5390  -8.4285  -8.1087
     2.9185   3.3114   3.5603   3.7877   3.8117   4.1137   4.2967   4.6157
     4.7749   4.7831   5.4393   5.9345   6.2769   6.3004   6.7633   6.8542
     6.9492   6.9982

     occupation numbers 
     1.0000   1.0000   1.0000   1.0000   1.0000   1.0000   1.0000   1.0000
     1.0000   1.0000   1.0000   1.0000   1.0000   1.0000   1.0000   1.0000
     1.0000   1.0000   1.0000   1.0000   1.0000   1.0000   1.0000   1.0000
     1.0000   1.0000   1.0000   1.0000   1.0000   1.0000   1.0000   1.0000
     1.0000   1.0000

          k = 0.0000 0.8102 0.1329 (  5622 PWs)   bands (ev):

   -46.8649 -46.8648 -34.6594 -34.6593 -23.2208 -23.1880 -23.1503 -23.0901
   -23.0281 -23.0010  -9.1250  -9.0302  -8.6980  -8.3905  -8.3020  -8.1012
     2.6693   3.1209   3.1616   3.6235   3.9492   3.9560   4.6998   4.7719
     5.1678   5.3366   5.7617   5.7673   6.0484   6.3528   6.5936   6.6268
     6.7930   7.0798

     occupation numbers 
     1.0000   1.0000   1.0000   1.0000   1.0000   1.0000   1.0000   1.0000
     1.0000   1.0000   1.0000   1.0000   1.0000   1.0000   1.0000   1.0000
     1.0000   1.0000   1.0000   1.0000   1.0000   1.0000   1.0000   1.0000
     1.0000   1.0000   1.0000   1.0000   1.0000   1.0000   1.0000   1.0000
     1.0000   1.0000

          k = 0.8770 0.5064-0.2658 (  5599 PWs)   bands (ev):

   -46.8662 -46.8635 -34.6596 -34.6591 -23.1851 -23.1756 -23.1512 -23.0922
   -23.0458 -23.0278  -9.1139  -8.9009  -8.7067  -8.3668  -8.3610  -8.2552
     3.1893   3.2528   3.3011   3.8305   3.9275   4.0737   4.2272   4.5372
     4.8981   5.0546   5.3874   5.5971   6.3547   6.4356   6.6033   6.7921
     6.8296   7.0501

     occupation numbers 
     1.0000   1.0000   1.0000   1.0000   1.0000   1.0000   1.0000   1.0000
     1.0000   1.0000   1.0000   1.0000   1.0000   1.0000   1.0000   1.0000
     1.0000   1.0000   1.0000   1.0000   1.0000   1.0000   1.0000   1.0000
     1.0000   1.0000   1.0000   1.0000   1.0000   1.0000   1.0000   1.0000
     1.0000   1.0000

          k = 0.8770 0.3038-0.1993 (  5618 PWs)   bands (ev):

   -46.8649 -46.8649 -34.6593 -34.6593 -23.2086 -23.2086 -23.1182 -23.1182
   -23.0121 -23.0121  -9.0895  -9.0895  -8.5714  -8.5714  -8.1657  -8.1657
     2.8579   2.8579   3.3936   3.3936   4.2196   4.2196   4.4865   4.4865
     5.2706   5.2706   5.7803   5.7803   6.1745   6.1745   6.5502   6.5502
     6.9553   6.9553

     occupation numbers 
     1.0000   1.0000   1.0000   1.0000   1.0000   1.0000   1.0000   1.0000
     1.0000   1.0000   1.0000   1.0000   1.0000   1.0000   1.0000   1.0000
     1.0000   1.0000   1.0000   1.0000   1.0000   1.0000   1.0000   1.0000
     1.0000   1.0000   1.0000   1.0000   1.0000   1.0000   1.0000   1.0000
     1.0000   1.0000

          k = 0.0000 0.0000-0.5980 (  5590 PWs)   bands (ev):

   -46.8649 -46.8649 -34.6593 -34.6593 -23.1386 -23.1386 -23.1386 -23.1386
   -23.0619 -23.0619  -8.9160  -8.9160  -8.4804  -8.4804  -8.4804  -8.4804
     3.6765   3.6765   3.6765   3.6765   3.9165   3.9165   4.5291   4.5291
     4.5291   4.5291   4.9455   4.9455   6.5940   6.5940   6.8884   6.8884
     6.8884   6.8884

     occupation numbers 
     1.0000   1.0000   1.0000   1.0000   1.0000   1.0000   1.0000   1.0000
     1.0000   1.0000   1.0000   1.0000   1.0000   1.0000   1.0000   1.0000
     1.0000   1.0000   1.0000   1.0000   1.0000   1.0000   1.0000   1.0000
     1.0000   1.0000   1.0000   1.0000   1.0000   1.0000   1.0000   1.0000
     1.0000   1.0000

     highest occupied level (ev):     7.2137

!    total energy              =    -936.83836887 Ry
     estimated scf accuracy    <          7.3E-13 Ry

     The total energy is the sum of the following terms:
     one-electron contribution =    -140.21248443 Ry
     hartree contribution      =     104.76231496 Ry
     xc contribution           =    -108.23994645 Ry
     ewald contribution        =    -329.69344962 Ry
     one-center paw contrib.   =    -463.45480332 Ry
      -> PAW hartree energy AE =     293.50576253 Ry
      -> PAW hartree energy PS =    -291.98579163 Ry
      -> PAW xc energy AE      =    -560.69731516 Ry
      -> PAW xc energy PS      =      95.72254093 Ry
      -> total E_H with PAW    =     106.28228586 Ry
      -> total E_XC with PAW   =    -573.21472068 Ry

     convergence has been achieved in  25 iterations

     Forces acting on atoms (cartesian axes, Ry/au):

     atom    1 type  1   force =    -0.00000000    0.00000000   -0.00106198
     atom    2 type  1   force =     0.00000000   -0.00000000   -0.00106198
     atom    3 type  2   force =     0.00470661   -0.00142231   -0.00175711
     atom    4 type  2   force =    -0.00112155    0.00478719   -0.00175711
     atom    5 type  2   force =    -0.00358506   -0.00336489   -0.00175711
     atom    6 type  2   force =     0.00112155    0.00478719   -0.00175711
     atom    7 type  2   force =    -0.00470661   -0.00142231   -0.00175711
     atom    8 type  2   force =     0.00358506   -0.00336489   -0.00175711
     atom    9 type  3   force =    -0.00000000    0.00000000    0.00633332
     atom   10 type  3   force =    -0.00000000    0.00000000    0.00633332
     The non-local contrib.  to forces
     atom    1 type  1   force =    -0.00000000   -0.00000000    0.00777479
     atom    2 type  1   force =    -0.00000000   -0.00000000    0.00777479
     atom    3 type  2   force =     0.31762062   -0.19583425   -0.03944173
     atom    4 type  2   force =     0.01078712    0.37298466   -0.03944173
     atom    5 type  2   force =    -0.32840775   -0.17715040   -0.03944173
     atom    6 type  2   force =    -0.01078712    0.37298466   -0.03944173
     atom    7 type  2   force =    -0.31762062   -0.19583425   -0.03944173
     atom    8 type  2   force =     0.32840775   -0.17715040   -0.03944173
     atom    9 type  3   force =     0.00000000   -0.00000000   -0.01352551
     atom   10 type  3   force =     0.00000000   -0.00000000   -0.01352551
     The ionic contribution  to forces
     atom    1 type  1   force =    -0.00000000   -0.00000000   -1.16395617
     atom    2 type  1   force =     0.00000000   -0.00000000   -1.16395617
     atom    3 type  2   force =    -3.59872411    2.76746545    0.34132541
     atom    4 type  2   force =    -0.59733333   -4.50031922    0.34132541
     atom    5 type  2   force =     4.19605744    1.73285377    0.34132541
     atom    6 type  2   force =     0.59733333   -4.50031922    0.34132541
     atom    7 type  2   force =     3.59872411    2.76746545    0.34132541
     atom    8 type  2   force =    -4.19605744    1.73285377    0.34132541
     atom    9 type  3   force =    -0.00000000   -0.00000000    0.13997993
     atom   10 type  3   force =     0.00000000    0.00000000    0.13997993
     The local contribution  to forces
     atom    1 type  1   force =     0.00000000   -0.00000000    1.15511942
     atom    2 type  1   force =     0.00000000    0.00000000    1.15511941
     atom    3 type  2   force =     3.28706744   -2.57472687   -0.30352720
     atom    4 type  2   force =     0.58624516    4.13404734   -0.30352720
     atom    5 type  2   force =    -3.87331260   -1.55932046   -0.30352720
     atom    6 type  2   force =    -0.58624516    4.13404734   -0.30352720
     atom    7 type  2   force =    -3.28706743   -2.57472687   -0.30352720
     atom    8 type  2   force =     3.87331260   -1.55932047   -0.30352720
     atom    9 type  3   force =    -0.00000000    0.00000000   -0.11586277
     atom   10 type  3   force =    -0.00000000    0.00000000   -0.11586277
     The core correction contribution to forces
     atom    1 type  1   force =     0.00000000    0.00000000    0.00000000
     atom    2 type  1   force =     0.00000000    0.00000000    0.00000000
     atom    3 type  2   force =    -0.00125699    0.00167322   -0.00011359
     atom    4 type  2   force =    -0.00082056   -0.00192519   -0.00011359
     atom    5 type  2   force =     0.00207755    0.00025197   -0.00011359
     atom    6 type  2   force =     0.00082056   -0.00192519   -0.00011359
     atom    7 type  2   force =     0.00125699    0.00167322   -0.00011359
     atom    8 type  2   force =    -0.00207755    0.00025197   -0.00011359
     atom    9 type  3   force =    -0.00000000    0.00000000   -0.00425821
     atom   10 type  3   force =    -0.00000000   -0.00000000   -0.00425821
     The Hubbard contrib.    to forces
     atom    1 type  1   force =     0.00000000    0.00000000    0.00000000
     atom    2 type  1   force =     0.00000000    0.00000000    0.00000000
     atom    3 type  2   force =     0.00000000    0.00000000    0.00000000
     atom    4 type  2   force =     0.00000000    0.00000000    0.00000000
     atom    5 type  2   force =     0.00000000    0.00000000    0.00000000
     atom    6 type  2   force =     0.00000000    0.00000000    0.00000000
     atom    7 type  2   force =     0.00000000    0.00000000    0.00000000
     atom    8 type  2   force =     0.00000000    0.00000000    0.00000000
     atom    9 type  3   force =     0.00000000    0.00000000    0.00000000
     atom   10 type  3   force =     0.00000000    0.00000000    0.00000000
     The SCF correction term to forces
     atom    1 type  1   force =    -0.00000000    0.00000000   -0.00000001
     atom    2 type  1   force =     0.00000000   -0.00000000   -0.00000001
     atom    3 type  2   force =    -0.00000036    0.00000014    0.00000000
     atom    4 type  2   force =     0.00000006   -0.00000038    0.00000000
     atom    5 type  2   force =     0.00000030    0.00000024    0.00000000
     atom    6 type  2   force =    -0.00000006   -0.00000038    0.00000000
     atom    7 type  2   force =     0.00000036    0.00000014    0.00000000
     atom    8 type  2   force =    -0.00000030    0.00000024    0.00000000
     atom    9 type  3   force =     0.00000000   -0.00000000   -0.00000010
     atom   10 type  3   force =     0.00000000   -0.00000000   -0.00000010

     Total force =     0.015686     Total SCF correction =     0.000001


     Computing stress (Cartesian axis) and pressure

          total   stress  (Ry/bohr**3)                   (kbar)     P=      -19.37
  -0.00020911   0.00000000   0.00000000          -30.76        0.00        0.00
   0.00000000  -0.00020911  -0.00000000            0.00      -30.76       -0.00
   0.00000000  -0.00000000   0.00002327            0.00       -0.00        3.42

     kinetic stress (kbar)  26481.64     -0.00     -0.00
                               -0.00  26481.64      0.00
                               -0.00      0.00  26469.13

     local   stress (kbar) -13111.53     -0.00     -0.00
                               -0.00 -13111.53      0.00
                               -0.00      0.00 -10609.95

     nonloc. stress (kbar)   6903.19      0.00     -0.00
                                0.00   6903.19      0.00
                                0.00      0.00   6953.02

     hartree stress (kbar)   7389.88     -0.00     -0.00
                               -0.00   7389.88     -0.00
                               -0.00     -0.00   6757.88

     exc-cor stress (kbar)   1073.57      0.00      0.00
                                0.00   1073.57     -0.00
                                0.00     -0.00   1069.95

     corecor stress (kbar)  -6796.85     -0.00     -0.00
                               -0.00  -6796.85      0.00
                               -0.00      0.00  -6797.62

     ewald   stress (kbar) -21970.66      0.00      0.00
                                0.00 -21970.66     -0.00
                                0.00     -0.00 -23838.99

     hubbard stress (kbar)      0.00      0.00      0.00
                                0.00      0.00      0.00
                                0.00      0.00      0.00

     DFT-D   stress (kbar)      0.00      0.00      0.00
                                0.00      0.00      0.00
                                0.00      0.00      0.00

     XDM     stress (kbar)      0.00      0.00      0.00
                                0.00      0.00      0.00
                                0.00      0.00      0.00

     dft-nl  stress (kbar)      0.00      0.00      0.00
                                0.00      0.00      0.00
                                0.00      0.00      0.00

     TS-vdW  stress (kbar)      0.00      0.00      0.00
                                0.00      0.00      0.00
                                0.00      0.00      0.00

     MDB     stress (kbar)      0.00      0.00      0.00
                                0.00      0.00      0.00
                                0.00      0.00      0.00

     3D-RISM stress (kbar)      0.00      0.00      0.00
                                0.00      0.00      0.00
                                0.00      0.00      0.00

     Message from routine punch:
     Nothing written, as per user request (disk_io='none')
 
     init_run     :      0.58s CPU      0.80s WALL (       1 calls)
     electrons    :     19.98s CPU     20.44s WALL (       1 calls)
     forces       :      0.08s CPU      0.08s WALL (       1 calls)
     stress       :      0.16s CPU      0.17s WALL (       1 calls)

     Called by init_run:
     wfcinit      :      0.18s CPU      0.29s WALL (       1 calls)
     wfcinit:atom :      0.03s CPU      0.03s WALL (      32 calls)
     wfcinit:wfcr :      0.13s CPU      0.20s WALL (      32 calls)
     potinit      :      0.10s CPU      0.12s WALL (       1 calls)
     hinit0       :      0.22s CPU      0.24s WALL (       1 calls)

     Called by electrons:
     c_bands      :     15.71s CPU     16.02s WALL (      25 calls)
     sum_band     :      1.77s CPU      1.81s WALL (      25 calls)
     v_of_rho     :      0.10s CPU      0.13s WALL (      26 calls)
     v_h          :      0.03s CPU      0.06s WALL (      26 calls)
     v_xc         :      0.07s CPU      0.08s WALL (      28 calls)
     newd         :      0.25s CPU      0.28s WALL (      26 calls)
     PAW_pot      :      1.97s CPU      2.03s WALL (      26 calls)
     mix_rho      :      0.16s CPU      0.18s WALL (      25 calls)

     Called by c_bands:
     init_us_2    :      0.56s CPU      0.57s WALL (    1696 calls)
     cegterg      :     14.54s CPU     14.82s WALL (     800 calls)

     Called by sum_band:
     sum_band:wei :      0.00s CPU      0.00s WALL (      25 calls)
     sum_band:loo :      1.35s CPU      1.38s WALL (      25 calls)
     sum_band:buf :      0.23s CPU      0.25s WALL (     800 calls)
     sum_band:ini :      0.26s CPU      0.27s WALL (     800 calls)
     sum_band:cal :      0.01s CPU      0.01s WALL (     800 calls)
     sum_band:bec :      0.31s CPU      0.32s WALL (     800 calls)
     addusdens    :      0.27s CPU      0.27s WALL (      25 calls)
                                        0.27s GPU  (      25 calls)
     addusd:skk   :      0.01s CPU      0.01s WALL (      75 calls)
                                        0.01s GPU  (      75 calls)

     Called by *egterg:
     cdiaghg      :      6.54s CPU      6.69s WALL (    5151 calls)
                                        6.63s GPU  (    5151 calls)
     cegterg:over :      0.39s CPU      0.39s WALL (    4351 calls)
     cegterg:upda :      1.44s CPU      1.45s WALL (    4351 calls)
     cegterg:last :      0.19s CPU      0.19s WALL (    2943 calls)
     h_psi        :      3.92s CPU      4.16s WALL (    5183 calls)
     s_psi        :      1.41s CPU      1.43s WALL (    5183 calls)
     g_psi        :      0.09s CPU      0.09s WALL (    4351 calls)

     Called by h_psi:
     h_psi:calbec :      0.09s CPU      0.13s WALL (    5183 calls)
     vloc_psi     :      2.49s CPU      2.73s WALL (    5183 calls)
                                        2.68s GPU  (    5183 calls)
     add_vuspsi   :      1.18s CPU      1.20s WALL (    5183 calls)

     General routines
     calbec       :      0.11s CPU      0.14s WALL (    6527 calls)
     fft          :      0.04s CPU      0.06s WALL (     361 calls)
                                        0.02s GPU  (     335 calls)
     ffts         :      0.02s CPU      0.02s WALL (      51 calls)
                                        0.00s GPU  (      25 calls)
     fftw         :      0.18s CPU      1.61s WALL (   22854 calls)
                                        1.39s GPU  (   22854 calls)
     interpolate  :      0.07s CPU      0.09s WALL (      26 calls)
 
     Parallel routines

     PAW routines
     PAW_pot      :      1.97s CPU      2.03s WALL (      26 calls)
     PAW_symme    :      0.00s CPU      0.00s WALL (      51 calls)
 
     PWSCF        :     21.16s CPU     21.87s WALL

 
   This run was terminated on:  17: 6:21  29Nov2025            

=------------------------------------------------------------------------------=
   JOB DONE.
=------------------------------------------------------------------------------=
