
     Program PWSCF v.7.5 starts on 29Nov2025 at 17: 5:38 

     This program is part of the open-source Quantum ESPRESSO suite
     for quantum simulation of materials; please cite
         "P. Giannozzi et al., J. Phys.:Condens. Matter 21 395502 (2009);
         "P. Giannozzi et al., J. Phys.:Condens. Matter 29 465901 (2017);
         "P. Giannozzi et al., J. Chem. Phys. 152 154105 (2020);
          URL http://www.quantum-espresso.org", 
     in publications or presentations arising from this work. More details at
     http://www.quantum-espresso.org/quote

     Parallel version (MPI & OpenMP), running on       1 processor cores
     Number of MPI processes:                 1
     Threads/MPI process:                     1

     MPI processes distributed on     1 nodes
     1899869 MiB available memory on the printing compute node when the environment starts
 
     Reading input from espresso.pwi
Warning: card &CELL ignored
Warning: card &FCP ignored
Warning: card &RISM ignored

     Current dimensions of program PWSCF are:
     Max number of different atomic species (ntypx) = 10
     Max number of k-points (npk) =  40000
     Max angular momentum in pseudopotentials (lmaxx) =  4
     file O.pbesol-n-kjpaw_psl.0.1.UPF: wavefunction(s)  2P renormalized
     file Nb.pbesol-spn-kjpaw_psl.0.3.0.UPF: wavefunction(s)  4S 4P renormalized
     Message from routine setup:
     using ibrav=0 with symmetry is DISCOURAGED, use correct ibrav instead
 
     Subspace diagonalization in iterative solution of the eigenvalue problem:
     a serial algorithm will be used

 
     G-vector sticks info
     --------------------
     sticks:   dense  smooth     PW     G-vecs:    dense   smooth      PW
     Sum        2739    1643    483                91921    42697    6791
 
     Using Slab Decomposition
 


     bravais-lattice index     =            0
     lattice parameter (alat)  =      10.1718  a.u.
     unit-cell volume          =     680.5388 (a.u.)^3
     number of atoms/cell      =           10
     number of atomic types    =            3
     number of electrons       =        68.00
     number of Kohn-Sham states=           34
     kinetic-energy cutoff     =      60.0000  Ry
     charge density cutoff     =     400.0000  Ry
     scf convergence threshold =      1.0E-12
     mixing beta               =       0.7000
     number of iterations used =            8  plain     mixing
     Exchange-correlation= SLA  PW   PSX  PSC
                           (   1   4  10   8   0   0   0)

     GPU acceleration is ACTIVE.  1 visible GPUs per MPI rank


     GPU used by master process:

        Device Number: 0
        Device name: NVIDIA B200
        Compute capability : 100
        Ratio of single to double precision performance  : 16
        Memory Clock Rate (KHz): 3996000
        Memory Bus Width (bits): 7680
        Peak Memory Bandwidth (GB/s): ******

     celldm(1)=  10.171766  celldm(2)=   0.000000  celldm(3)=   0.000000
     celldm(4)=   0.000000  celldm(5)=   0.000000  celldm(6)=   0.000000

     crystal axes: (cart. coord. in units of alat)
               a(1) = (   0.471811   0.272400   0.838566 )  
               a(2) = (  -0.471811   0.272400   0.838566 )  
               a(3) = (   0.000000  -0.544800   0.838566 )  

     reciprocal axes: (cart. coord. in units 2 pi/alat)
               b(1) = (  1.059746  0.611845  0.397504 )  
               b(2) = ( -1.059746  0.611845  0.397504 )  
               b(3) = (  0.000000 -1.223690  0.397504 )  


     PseudoPot. # 1 for Li read from file:
     /home/qhossain/SSSP_1.3.0_PBEsol_efficiency/li_pbesol_v1.4.uspp.F.UPF
     MD5 check sum: aa28d9aeea6a965f2dc95ee9517b3536
     Pseudo is Ultrasoft, Zval =  3.0
     Generated by new atomic code, or converted to UPF format
     Using radial grid of  751 points,  5 beta functions with: 
                l(1) =   0
                l(2) =   0
                l(3) =   0
                l(4) =   1
                l(5) =   1
     Q(r) pseudized with 10 coefficients,  rinner =    1.150   1.150   1.150


     PseudoPot. # 2 for O  read from file:
     /home/qhossain/SSSP_1.3.0_PBEsol_efficiency/O.pbesol-n-kjpaw_psl.0.1.UPF
     MD5 check sum: 81d73d1479e654e5638b0319f0d6c2c7
     Pseudo is Projector augmented-wave + core cor, Zval =  6.0
     Generated using "atomic" code by A. Dal Corso  v.6.0 svn rev. 13079
     Shape of augmentation charge: BESSEL
     Using radial grid of 1095 points,  4 beta functions with: 
                l(1) =   0
                l(2) =   0
                l(3) =   1
                l(4) =   1
     Q(r) pseudized with 0 coefficients 


     PseudoPot. # 3 for Nb read from file:
     /home/qhossain/SSSP_1.3.0_PBEsol_efficiency/Nb.pbesol-spn-kjpaw_psl.0.3.0.UPF
     MD5 check sum: 3501bca1474143575298708b2d32ca28
     Pseudo is Projector augmented-wave + core cor, Zval = 13.0
     Generated using "atomic" code by A. Dal Corso  v.6.0 svn rev. 13079
     Shape of augmentation charge: PSQ
     Using radial grid of 1227 points,  6 beta functions with: 
                l(1) =   0
                l(2) =   0
                l(3) =   1
                l(4) =   1
                l(5) =   2
                l(6) =   2
     Q(r) pseudized with 0 coefficients 


     atomic species   valence    mass     pseudopotential
     Li                3.00     6.94000     Li( 1.00)
     O                 6.00    15.99900     O ( 1.00)
     Nb               13.00    92.90637     Nb( 1.00)

      6 Sym. Ops. (no inversion) found ( 3 have fractional translation)


                                    s                        frac. trans.

      isym =  1     identity                                     

 cryst.   s( 1) = (     1          0          0      )
                  (     0          1          0      )
                  (     0          0          1      )

 cart.    s( 1) = (  1.0000000  0.0000000 -0.0000000 )
                  ( -0.0000000  1.0000000 -0.0000000 )
                  ( -0.0000000 -0.0000000  1.0000000 )


      isym =  2     120 deg rotation - cryst. axis [0,0,1]       

 cryst.   s( 2) = (     0          1          0      )
                  (     0          0          1      )
                  (     1          0          0      )

 cart.    s( 2) = ( -0.5000000 -0.8660254 -0.0000000 )
                  (  0.8660254 -0.5000000 -0.0000000 )
                  ( -0.0000000  0.0000000  1.0000000 )


      isym =  3     120 deg rotation - cryst. axis [0,0,-1]      

 cryst.   s( 3) = (     0          0          1      )
                  (     1          0          0      )
                  (     0          1          0      )

 cart.    s( 3) = ( -0.5000000  0.8660254  0.0000000 )
                  ( -0.8660254 -0.5000000 -0.0000000 )
                  (  0.0000000  0.0000000  1.0000000 )


      isym =  4     inv. 180 deg rotation - cart. axis [1,0,0]   

 cryst.   s( 4) = (     0          1          0      )    f =(  0.5000000 )
                  (     1          0          0      )       (  0.5000000 )
                  (     0          0          1      )       (  0.5000000 )

 cart.    s( 4) = ( -1.0000000  0.0000000 -0.0000000 )    f =(  0.0000000 )
                  ( -0.0000000  1.0000000 -0.0000000 )       ( -0.0000000 )
                  (  0.0000000 -0.0000000  1.0000000 )       (  1.2578486 )


      isym =  5     inv. 180 deg rotation - cryst. axis [0,1,0]  

 cryst.   s( 5) = (     1          0          0      )    f =(  0.5000000 )
                  (     0          0          1      )       (  0.5000000 )
                  (     0          1          0      )       (  0.5000000 )

 cart.    s( 5) = (  0.5000000  0.8660254  0.0000000 )    f =(  0.0000000 )
                  (  0.8660254 -0.5000000 -0.0000000 )       ( -0.0000000 )
                  ( -0.0000000  0.0000000  1.0000000 )       (  1.2578486 )


      isym =  6     inv. 180 deg rotation - cryst. axis [1,1,0]  

 cryst.   s( 6) = (     0          0          1      )    f =(  0.5000000 )
                  (     0          1          0      )       (  0.5000000 )
                  (     1          0          0      )       (  0.5000000 )

 cart.    s( 6) = (  0.5000000 -0.8660254 -0.0000000 )    f =( -0.0000000 )
                  ( -0.8660254 -0.5000000 -0.0000000 )       ( -0.0000000 )
                  (  0.0000000  0.0000000  1.0000000 )       (  1.2578486 )


   Cartesian axes

     site n.     atom                  positions (alat units)
         1        Li     tau(   1) = (   0.0000000  -0.0000000   1.9708701  )
         2        Li     tau(   2) = (  -0.0000000  -0.0000000   0.7130214  )
         3        O      tau(   3) = (  -0.3024219  -0.0385705   1.4241463  )
         4        O      tau(   4) = (   0.1846140  -0.2426198   1.4241463  )
         5        O      tau(   5) = (   0.1178079   0.2811903   1.4241463  )
         6        O      tau(   6) = (   0.2871970   0.0297804   1.0048635  )
         7        O      tau(   7) = (  -0.1693891   0.2338297   1.0048635  )
         8        O      tau(   8) = (  -0.1178079  -0.2636101   1.0048635  )
         9        Nb     tau(   9) = (  -0.0000000  -0.0000000   1.2605558  )
        10        Nb     tau(  10) = (  -0.0000000  -0.0000000   0.0027072  )

   Crystallographic axes

     site n.     atom                  positions (cryst. coord.)
         1        Li     tau(   1) = (  0.7834289  0.7834289  0.7834289  )
         2        Li     tau(   2) = (  0.2834289  0.2834289  0.2834289  )
         3        O      tau(   3) = (  0.2220144  0.8629954  0.6133023  )
         4        O      tau(   4) = (  0.6133023  0.2220144  0.8629954  )
         5        O      tau(   5) = (  0.8629954  0.6133023  0.2220144  )
         6        O      tau(   6) = (  0.7220144  0.1133023  0.3629954  )
         7        O      tau(   7) = (  0.3629954  0.7220144  0.1133023  )
         8        O      tau(   8) = (  0.1133023  0.3629954  0.7220144  )
         9        Nb     tau(   9) = (  0.5010761  0.5010761  0.5010761  )
        10        Nb     tau(  10) = (  0.0010761  0.0010761  0.0010761  )

     number of k points=    32
                       cart. coord. in units 2pi/alat
        k(    1) = (   0.0000000   0.0000000   0.0000000), wk =   0.0092593
        k(    2) = (   0.0000000  -0.2039483   0.0662507), wk =   0.0555556
        k(    3) = (   0.0000000  -0.4078966   0.1325014), wk =   0.0555556
        k(    4) = (  -0.0000000   0.6118449  -0.1987521), wk =   0.0277778
        k(    5) = (  -0.1766244  -0.1019741   0.1325014), wk =   0.0555556
        k(    6) = (  -0.1766244  -0.3059224   0.1987521), wk =   0.1111111
        k(    7) = (  -0.1766244   0.7138190  -0.1325014), wk =   0.1111111
        k(    8) = (  -0.1766244   0.5098707  -0.0662507), wk =   0.1111111
        k(    9) = (  -0.1766244   0.3059224   0.0000000), wk =   0.0555556
        k(   10) = (  -0.3532488  -0.2039483   0.2650027), wk =   0.0555556
        k(   11) = (  -0.3532488   0.8157932  -0.0662507), wk =   0.1111111
        k(   12) = (  -0.3532488   0.6118449   0.0000000), wk =   0.0555556
        k(   13) = (   0.5298732   0.3059224  -0.3975041), wk =   0.0277778
        k(   14) = (   0.0000000   0.0000000   0.1987521), wk =   0.0185185
        k(   15) = (   0.0000000  -0.2039483   0.2650027), wk =   0.0555556
        k(   16) = (   0.0000000   0.8157932  -0.0662507), wk =   0.0555556
        k(   17) = (   0.0000000   0.6118449   0.0000000), wk =   0.0555556
        k(   18) = (   0.0000000   0.4078966   0.0662507), wk =   0.0555556
        k(   19) = (  -0.1766244  -0.1019741   0.3312534), wk =   0.0555556
        k(   20) = (  -0.1766244   0.9177673   0.0000000), wk =   0.1111111
        k(   21) = (  -0.1766244   0.7138190   0.0662507), wk =   0.1111111
        k(   22) = (  -0.1766244   0.5098707   0.1325014), wk =   0.1111111
        k(   23) = (   0.7064976   0.4078966  -0.3312534), wk =   0.0555556
        k(   24) = (   0.7064976   0.2039483  -0.2650027), wk =   0.1111111
        k(   25) = (   0.7064976  -0.0000000  -0.1987521), wk =   0.0555556
        k(   26) = (   0.5298732   0.3059224  -0.1987521), wk =   0.0555556
        k(   27) = (   0.0000000   0.0000000   0.3975041), wk =   0.0185185
        k(   28) = (   0.0000000   1.0197415   0.0662507), wk =   0.0555556
        k(   29) = (   0.0000000   0.8157932   0.1325014), wk =   0.0555556
        k(   30) = (   0.8831220   0.5098707  -0.2650027), wk =   0.0555556
        k(   31) = (   0.8831220   0.3059224  -0.1987521), wk =   0.0555556
        k(   32) = (  -0.0000000   0.0000000  -0.5962562), wk =   0.0092593

                       cryst. coord.
        k(    1) = (   0.0000000   0.0000000   0.0000000), wk =   0.0092593
        k(    2) = (  -0.0000000  -0.0000000   0.1666667), wk =   0.0555556
        k(    3) = (  -0.0000000  -0.0000000   0.3333333), wk =   0.0555556
        k(    4) = (  -0.0000000  -0.0000000  -0.5000000), wk =   0.0277778
        k(    5) = (  -0.0000000   0.1666667   0.1666667), wk =   0.0555556
        k(    6) = (  -0.0000000   0.1666667   0.3333333), wk =   0.1111111
        k(    7) = (  -0.0000000   0.1666667  -0.5000000), wk =   0.1111111
        k(    8) = (  -0.0000000   0.1666667  -0.3333333), wk =   0.1111111
        k(    9) = (  -0.0000000   0.1666667  -0.1666667), wk =   0.0555556
        k(   10) = (  -0.0000000   0.3333333   0.3333333), wk =   0.0555556
        k(   11) = (  -0.0000000   0.3333333  -0.5000000), wk =   0.1111111
        k(   12) = (  -0.0000000   0.3333333  -0.3333333), wk =   0.0555556
        k(   13) = (   0.0000000  -0.5000000  -0.5000000), wk =   0.0277778
        k(   14) = (   0.1666667   0.1666667   0.1666667), wk =   0.0185185
        k(   15) = (   0.1666667   0.1666667   0.3333333), wk =   0.0555556
        k(   16) = (   0.1666667   0.1666667  -0.5000000), wk =   0.0555556
        k(   17) = (   0.1666667   0.1666667  -0.3333333), wk =   0.0555556
        k(   18) = (   0.1666667   0.1666667  -0.1666667), wk =   0.0555556
        k(   19) = (   0.1666667   0.3333333   0.3333333), wk =   0.0555556
        k(   20) = (   0.1666667   0.3333333  -0.5000000), wk =   0.1111111
        k(   21) = (   0.1666667   0.3333333  -0.3333333), wk =   0.1111111
        k(   22) = (   0.1666667   0.3333333  -0.1666667), wk =   0.1111111
        k(   23) = (   0.1666667  -0.5000000  -0.5000000), wk =   0.0555556
        k(   24) = (   0.1666667  -0.5000000  -0.3333333), wk =   0.1111111
        k(   25) = (   0.1666667  -0.5000000  -0.1666667), wk =   0.0555556
        k(   26) = (   0.1666667  -0.3333333  -0.3333333), wk =   0.0555556
        k(   27) = (   0.3333333   0.3333333   0.3333333), wk =   0.0185185
        k(   28) = (   0.3333333   0.3333333  -0.5000000), wk =   0.0555556
        k(   29) = (   0.3333333   0.3333333  -0.3333333), wk =   0.0555556
        k(   30) = (   0.3333333  -0.5000000  -0.5000000), wk =   0.0555556
        k(   31) = (   0.3333333  -0.5000000  -0.3333333), wk =   0.0555556
        k(   32) = (  -0.5000000  -0.5000000  -0.5000000), wk =   0.0092593

     Dense  grid:    91921 G-vectors     FFT dimensions: (  72,  72,  72)

     Smooth grid:    42697 G-vectors     FFT dimensions: (  54,  54,  54)

     Dynamical RAM for                 wfc:       2.77 MB

     Dynamical RAM for     wfc (w. buffer):      91.44 MB

     Dynamical RAM for           str. fact:       4.21 MB

     Dynamical RAM for           local pot:       0.00 MB

     Dynamical RAM for          nlocal pot:       8.31 MB

     Dynamical RAM for                qrad:       4.82 MB

     Dynamical RAM for          rho,v,vnew:      12.75 MB

     Dynamical RAM for               rhoin:       4.25 MB

     Dynamical RAM for            rho*nmix:      22.44 MB

     Dynamical RAM for           G-vectors:       5.59 MB

     Dynamical RAM for          h,s,v(r/c):       0.21 MB

     Dynamical RAM for          <psi|beta>:       0.05 MB

     Dynamical RAM for                 psi:       5.54 MB

     Dynamical RAM for                hpsi:       5.54 MB

     Dynamical RAM for                spsi:       5.54 MB

     Dynamical RAM for      wfcinit/wfcrot:       5.57 MB

     Dynamical RAM for           addusdens:     269.30 MB

     Dynamical RAM for          addusforce:     284.05 MB

     Dynamical RAM for         addusstress:     281.92 MB

     Estimated static dynamical RAM per process >     151.21 MB

     Estimated max dynamical RAM per process >     457.70 MB

     Check: negative core charge=   -0.000005

     Initial potential from superposition of free atoms

     starting charge      67.0945, renormalised to      68.0000
     Starting wfcs are   54 randomized atomic wfcs
     Checking if some PAW data can be deallocated... 

     total cpu time spent up to now is        1.1 secs

     per-process dynamical memory:   552.4 Mb

     Self-consistent Calculation
[tb_dev] Currently allocated     1.86E+00 Mbytes, locked:    0 /   3
[tb_pin] Currently allocated     0.00E+00 Mbytes, locked:    0 /   0

     iteration #  1     ecut=    60.00 Ry     beta= 0.70
     Davidson diagonalization with overlap

---- Real-time Memory Report at c_bands before calling an iterative solver
           979 MiB given to the printing process from OS
           539 MiB allocation reported by mallinfo(arena+hblkhd)
       1898941 MiB available memory on the node where the printing process lives
     GPU memory used/free/total (MiB): 2251 / 180390 / 182642
------------------
     ethr =  1.00E-02,  avg # of iterations =  1.4

     total cpu time spent up to now is        1.6 secs

     total energy              =    -934.56993914 Ry
     estimated scf accuracy    <       4.23616626 Ry
[tb_dev] Currently allocated     0.00E+00 Mbytes, locked:    0 /   0
[tb_pin] Currently allocated     0.00E+00 Mbytes, locked:    0 /   0

     iteration #  2     ecut=    60.00 Ry     beta= 0.70
     Davidson diagonalization with overlap

---- Real-time Memory Report at c_bands before calling an iterative solver
          1029 MiB given to the printing process from OS
           612 MiB allocation reported by mallinfo(arena+hblkhd)
       1898837 MiB available memory on the node where the printing process lives
     GPU memory used/free/total (MiB): 2251 / 180390 / 182642
------------------
     ethr =  6.23E-03,  avg # of iterations =  7.8

     total cpu time spent up to now is        2.6 secs

     total energy              =    -934.44480568 Ry
     estimated scf accuracy    <      12.40306816 Ry
[tb_dev] Currently allocated     0.00E+00 Mbytes, locked:    0 /   0
[tb_pin] Currently allocated     0.00E+00 Mbytes, locked:    0 /   0

     iteration #  3     ecut=    60.00 Ry     beta= 0.70
     Davidson diagonalization with overlap

---- Real-time Memory Report at c_bands before calling an iterative solver
          1036 MiB given to the printing process from OS
           616 MiB allocation reported by mallinfo(arena+hblkhd)
       1898848 MiB available memory on the node where the printing process lives
     GPU memory used/free/total (MiB): 2253 / 180388 / 182642
------------------
     ethr =  6.23E-03,  avg # of iterations =  5.0

     total cpu time spent up to now is        3.3 secs

     total energy              =    -936.66126329 Ry
     estimated scf accuracy    <       0.06363827 Ry
[tb_dev] Currently allocated     0.00E+00 Mbytes, locked:    0 /   0
[tb_pin] Currently allocated     0.00E+00 Mbytes, locked:    0 /   0

     iteration #  4     ecut=    60.00 Ry     beta= 0.70
     Davidson diagonalization with overlap

---- Real-time Memory Report at c_bands before calling an iterative solver
          1038 MiB given to the printing process from OS
           618 MiB allocation reported by mallinfo(arena+hblkhd)
       1898839 MiB available memory on the node where the printing process lives
     GPU memory used/free/total (MiB): 2253 / 180388 / 182642
------------------
     ethr =  9.36E-05,  avg # of iterations =  9.1

     total cpu time spent up to now is        4.4 secs

     total energy              =    -936.72110613 Ry
     estimated scf accuracy    <       0.29082587 Ry
[tb_dev] Currently allocated     0.00E+00 Mbytes, locked:    0 /   0
[tb_pin] Currently allocated     0.00E+00 Mbytes, locked:    0 /   0

     iteration #  5     ecut=    60.00 Ry     beta= 0.70
     Davidson diagonalization with overlap

---- Real-time Memory Report at c_bands before calling an iterative solver
          1041 MiB given to the printing process from OS
           620 MiB allocation reported by mallinfo(arena+hblkhd)
       1898848 MiB available memory on the node where the printing process lives
     GPU memory used/free/total (MiB): 2253 / 180388 / 182642
------------------
     ethr =  9.36E-05,  avg # of iterations =  7.0

     total cpu time spent up to now is        5.3 secs

     total energy              =    -936.82011691 Ry
     estimated scf accuracy    <       0.11693777 Ry
[tb_dev] Currently allocated     0.00E+00 Mbytes, locked:    0 /   0
[tb_pin] Currently allocated     0.00E+00 Mbytes, locked:    0 /   0

     iteration #  6     ecut=    60.00 Ry     beta= 0.70
     Davidson diagonalization with overlap

---- Real-time Memory Report at c_bands before calling an iterative solver
          1043 MiB given to the printing process from OS
           614 MiB allocation reported by mallinfo(arena+hblkhd)
       1898904 MiB available memory on the node where the printing process lives
     GPU memory used/free/total (MiB): 2253 / 180388 / 182642
------------------
     ethr =  9.36E-05,  avg # of iterations =  2.4

     total cpu time spent up to now is        5.8 secs

     total energy              =    -936.81311510 Ry
     estimated scf accuracy    <       0.02811638 Ry
[tb_dev] Currently allocated     0.00E+00 Mbytes, locked:    0 /   0
[tb_pin] Currently allocated     0.00E+00 Mbytes, locked:    0 /   0

     iteration #  7     ecut=    60.00 Ry     beta= 0.70
     Davidson diagonalization with overlap

---- Real-time Memory Report at c_bands before calling an iterative solver
          1045 MiB given to the printing process from OS
           622 MiB allocation reported by mallinfo(arena+hblkhd)
       1898902 MiB available memory on the node where the printing process lives
     GPU memory used/free/total (MiB): 2253 / 180388 / 182642
------------------
     ethr =  4.13E-05,  avg # of iterations =  5.8

     total cpu time spent up to now is        6.6 secs

     total energy              =    -936.82932479 Ry
     estimated scf accuracy    <       0.01495526 Ry
[tb_dev] Currently allocated     0.00E+00 Mbytes, locked:    0 /   0
[tb_pin] Currently allocated     0.00E+00 Mbytes, locked:    0 /   0

     iteration #  8     ecut=    60.00 Ry     beta= 0.70
     Davidson diagonalization with overlap

---- Real-time Memory Report at c_bands before calling an iterative solver
          1047 MiB given to the printing process from OS
           626 MiB allocation reported by mallinfo(arena+hblkhd)
       1898909 MiB available memory on the node where the printing process lives
     GPU memory used/free/total (MiB): 2253 / 180388 / 182642
------------------
     ethr =  2.20E-05,  avg # of iterations =  1.1

     total cpu time spent up to now is        7.0 secs

     total energy              =    -936.82809708 Ry
     estimated scf accuracy    <       0.00683158 Ry
[tb_dev] Currently allocated     0.00E+00 Mbytes, locked:    0 /   0
[tb_pin] Currently allocated     0.00E+00 Mbytes, locked:    0 /   0

     iteration #  9     ecut=    60.00 Ry     beta= 0.70
     Davidson diagonalization with overlap

---- Real-time Memory Report at c_bands before calling an iterative solver
          1048 MiB given to the printing process from OS
           626 MiB allocation reported by mallinfo(arena+hblkhd)
       1898903 MiB available memory on the node where the printing process lives
     GPU memory used/free/total (MiB): 2253 / 180388 / 182642
------------------
     ethr =  1.00E-05,  avg # of iterations =  3.2

     total cpu time spent up to now is        7.5 secs

     total energy              =    -936.82809042 Ry
     estimated scf accuracy    <       0.00206145 Ry
[tb_dev] Currently allocated     0.00E+00 Mbytes, locked:    0 /   0
[tb_pin] Currently allocated     0.00E+00 Mbytes, locked:    0 /   0

     iteration # 10     ecut=    60.00 Ry     beta= 0.70
     Davidson diagonalization with overlap

---- Real-time Memory Report at c_bands before calling an iterative solver
          1050 MiB given to the printing process from OS
           629 MiB allocation reported by mallinfo(arena+hblkhd)
       1898843 MiB available memory on the node where the printing process lives
     GPU memory used/free/total (MiB): 2253 / 180388 / 182642
------------------
     ethr =  3.03E-06,  avg # of iterations =  4.9

     total cpu time spent up to now is        8.2 secs

     total energy              =    -936.82900935 Ry
     estimated scf accuracy    <       0.00005630 Ry
[tb_dev] Currently allocated     0.00E+00 Mbytes, locked:    0 /   0
[tb_pin] Currently allocated     0.00E+00 Mbytes, locked:    0 /   0

     iteration # 11     ecut=    60.00 Ry     beta= 0.70
     Davidson diagonalization with overlap

---- Real-time Memory Report at c_bands before calling an iterative solver
          1050 MiB given to the printing process from OS
           629 MiB allocation reported by mallinfo(arena+hblkhd)
       1898821 MiB available memory on the node where the printing process lives
     GPU memory used/free/total (MiB): 2253 / 180388 / 182642
------------------
     ethr =  8.28E-08,  avg # of iterations =  6.0

     total cpu time spent up to now is        9.0 secs

     total energy              =    -936.82907273 Ry
     estimated scf accuracy    <       0.00005645 Ry
[tb_dev] Currently allocated     0.00E+00 Mbytes, locked:    0 /   0
[tb_pin] Currently allocated     0.00E+00 Mbytes, locked:    0 /   0

     iteration # 12     ecut=    60.00 Ry     beta= 0.70
     Davidson diagonalization with overlap

---- Real-time Memory Report at c_bands before calling an iterative solver
          1050 MiB given to the printing process from OS
           629 MiB allocation reported by mallinfo(arena+hblkhd)
       1898784 MiB available memory on the node where the printing process lives
     GPU memory used/free/total (MiB): 2253 / 180388 / 182642
------------------
     ethr =  8.28E-08,  avg # of iterations =  1.5

     total cpu time spent up to now is        9.4 secs

     total energy              =    -936.82906495 Ry
     estimated scf accuracy    <       0.00009299 Ry
[tb_dev] Currently allocated     0.00E+00 Mbytes, locked:    0 /   0
[tb_pin] Currently allocated     0.00E+00 Mbytes, locked:    0 /   0

     iteration # 13     ecut=    60.00 Ry     beta= 0.70
     Davidson diagonalization with overlap

---- Real-time Memory Report at c_bands before calling an iterative solver
          1051 MiB given to the printing process from OS
           629 MiB allocation reported by mallinfo(arena+hblkhd)
       1898792 MiB available memory on the node where the printing process lives
     GPU memory used/free/total (MiB): 2253 / 180388 / 182642
------------------
     ethr =  8.28E-08,  avg # of iterations =  1.0

     total cpu time spent up to now is        9.8 secs

     total energy              =    -936.82904981 Ry
     estimated scf accuracy    <       0.00007810 Ry
[tb_dev] Currently allocated     0.00E+00 Mbytes, locked:    0 /   0
[tb_pin] Currently allocated     0.00E+00 Mbytes, locked:    0 /   0

     iteration # 14     ecut=    60.00 Ry     beta= 0.70
     Davidson diagonalization with overlap

---- Real-time Memory Report at c_bands before calling an iterative solver
          1051 MiB given to the printing process from OS
           629 MiB allocation reported by mallinfo(arena+hblkhd)
       1898801 MiB available memory on the node where the printing process lives
     GPU memory used/free/total (MiB): 2253 / 180388 / 182642
------------------
     ethr =  8.28E-08,  avg # of iterations =  1.6

     total cpu time spent up to now is       10.2 secs

     total energy              =    -936.82905082 Ry
     estimated scf accuracy    <       0.00003802 Ry
[tb_dev] Currently allocated     0.00E+00 Mbytes, locked:    0 /   0
[tb_pin] Currently allocated     0.00E+00 Mbytes, locked:    0 /   0

     iteration # 15     ecut=    60.00 Ry     beta= 0.70
     Davidson diagonalization with overlap

---- Real-time Memory Report at c_bands before calling an iterative solver
          1051 MiB given to the printing process from OS
           629 MiB allocation reported by mallinfo(arena+hblkhd)
       1898792 MiB available memory on the node where the printing process lives
     GPU memory used/free/total (MiB): 2253 / 180388 / 182642
------------------
     ethr =  5.59E-08,  avg # of iterations =  1.0

     total cpu time spent up to now is       10.6 secs

     total energy              =    -936.82905081 Ry
     estimated scf accuracy    <       0.00003531 Ry
[tb_dev] Currently allocated     0.00E+00 Mbytes, locked:    0 /   0
[tb_pin] Currently allocated     0.00E+00 Mbytes, locked:    0 /   0

     iteration # 16     ecut=    60.00 Ry     beta= 0.70
     Davidson diagonalization with overlap

---- Real-time Memory Report at c_bands before calling an iterative solver
          1051 MiB given to the printing process from OS
           629 MiB allocation reported by mallinfo(arena+hblkhd)
       1898790 MiB available memory on the node where the printing process lives
     GPU memory used/free/total (MiB): 2253 / 180388 / 182642
------------------
     ethr =  5.19E-08,  avg # of iterations =  1.0

     total cpu time spent up to now is       11.0 secs

     total energy              =    -936.82905207 Ry
     estimated scf accuracy    <       0.00003117 Ry
[tb_dev] Currently allocated     0.00E+00 Mbytes, locked:    0 /   0
[tb_pin] Currently allocated     0.00E+00 Mbytes, locked:    0 /   0

     iteration # 17     ecut=    60.00 Ry     beta= 0.70
     Davidson diagonalization with overlap

---- Real-time Memory Report at c_bands before calling an iterative solver
          1051 MiB given to the printing process from OS
           629 MiB allocation reported by mallinfo(arena+hblkhd)
       1898792 MiB available memory on the node where the printing process lives
     GPU memory used/free/total (MiB): 2253 / 180388 / 182642
------------------
     ethr =  4.58E-08,  avg # of iterations =  1.0

     total cpu time spent up to now is       11.4 secs

     total energy              =    -936.82905887 Ry
     estimated scf accuracy    <       0.00003186 Ry
[tb_dev] Currently allocated     0.00E+00 Mbytes, locked:    0 /   0
[tb_pin] Currently allocated     0.00E+00 Mbytes, locked:    0 /   0

     iteration # 18     ecut=    60.00 Ry     beta= 0.70
     Davidson diagonalization with overlap

---- Real-time Memory Report at c_bands before calling an iterative solver
          1051 MiB given to the printing process from OS
           629 MiB allocation reported by mallinfo(arena+hblkhd)
       1898802 MiB available memory on the node where the printing process lives
     GPU memory used/free/total (MiB): 2253 / 180388 / 182642
------------------
     ethr =  4.58E-08,  avg # of iterations =  1.0

     total cpu time spent up to now is       11.8 secs

     total energy              =    -936.82905406 Ry
     estimated scf accuracy    <       0.00004788 Ry
[tb_dev] Currently allocated     0.00E+00 Mbytes, locked:    0 /   0
[tb_pin] Currently allocated     0.00E+00 Mbytes, locked:    0 /   0

     iteration # 19     ecut=    60.00 Ry     beta= 0.70
     Davidson diagonalization with overlap

---- Real-time Memory Report at c_bands before calling an iterative solver
          1051 MiB given to the printing process from OS
           629 MiB allocation reported by mallinfo(arena+hblkhd)
       1898803 MiB available memory on the node where the printing process lives
     GPU memory used/free/total (MiB): 2253 / 180388 / 182642
------------------
     ethr =  4.58E-08,  avg # of iterations =  1.0

     total cpu time spent up to now is       12.2 secs

     total energy              =    -936.82905337 Ry
     estimated scf accuracy    <       0.00003859 Ry
[tb_dev] Currently allocated     0.00E+00 Mbytes, locked:    0 /   0
[tb_pin] Currently allocated     0.00E+00 Mbytes, locked:    0 /   0

     iteration # 20     ecut=    60.00 Ry     beta= 0.70
     Davidson diagonalization with overlap

---- Real-time Memory Report at c_bands before calling an iterative solver
          1051 MiB given to the printing process from OS
           629 MiB allocation reported by mallinfo(arena+hblkhd)
       1898810 MiB available memory on the node where the printing process lives
     GPU memory used/free/total (MiB): 2253 / 180388 / 182642
------------------
     ethr =  4.58E-08,  avg # of iterations =  1.0

     total cpu time spent up to now is       12.6 secs

     total energy              =    -936.82905379 Ry
     estimated scf accuracy    <       0.00003524 Ry
[tb_dev] Currently allocated     0.00E+00 Mbytes, locked:    0 /   0
[tb_pin] Currently allocated     0.00E+00 Mbytes, locked:    0 /   0

     iteration # 21     ecut=    60.00 Ry     beta= 0.70
     Davidson diagonalization with overlap

---- Real-time Memory Report at c_bands before calling an iterative solver
          1051 MiB given to the printing process from OS
           629 MiB allocation reported by mallinfo(arena+hblkhd)
       1898816 MiB available memory on the node where the printing process lives
     GPU memory used/free/total (MiB): 2253 / 180388 / 182642
------------------
     ethr =  4.58E-08,  avg # of iterations =  1.0

     total cpu time spent up to now is       12.9 secs

     total energy              =    -936.82904922 Ry
     estimated scf accuracy    <       0.00003488 Ry
[tb_dev] Currently allocated     0.00E+00 Mbytes, locked:    0 /   0
[tb_pin] Currently allocated     0.00E+00 Mbytes, locked:    0 /   0

     iteration # 22     ecut=    60.00 Ry     beta= 0.70
     Davidson diagonalization with overlap

---- Real-time Memory Report at c_bands before calling an iterative solver
          1051 MiB given to the printing process from OS
           629 MiB allocation reported by mallinfo(arena+hblkhd)
       1898806 MiB available memory on the node where the printing process lives
     GPU memory used/free/total (MiB): 2253 / 180388 / 182642
------------------
     ethr =  4.58E-08,  avg # of iterations =  1.0

     total cpu time spent up to now is       13.3 secs

     total energy              =    -936.82904189 Ry
     estimated scf accuracy    <       0.00002016 Ry
[tb_dev] Currently allocated     0.00E+00 Mbytes, locked:    0 /   0
[tb_pin] Currently allocated     0.00E+00 Mbytes, locked:    0 /   0

     iteration # 23     ecut=    60.00 Ry     beta= 0.70
     Davidson diagonalization with overlap

---- Real-time Memory Report at c_bands before calling an iterative solver
          1051 MiB given to the printing process from OS
           629 MiB allocation reported by mallinfo(arena+hblkhd)
       1898804 MiB available memory on the node where the printing process lives
     GPU memory used/free/total (MiB): 2253 / 180388 / 182642
------------------
     ethr =  2.96E-08,  avg # of iterations =  4.9

     total cpu time spent up to now is       14.0 secs

     total energy              =    -936.82904591 Ry
     estimated scf accuracy    <       0.00000083 Ry
[tb_dev] Currently allocated     0.00E+00 Mbytes, locked:    0 /   0
[tb_pin] Currently allocated     0.00E+00 Mbytes, locked:    0 /   0

     iteration # 24     ecut=    60.00 Ry     beta= 0.70
     Davidson diagonalization with overlap

---- Real-time Memory Report at c_bands before calling an iterative solver
          1051 MiB given to the printing process from OS
           629 MiB allocation reported by mallinfo(arena+hblkhd)
       1898796 MiB available memory on the node where the printing process lives
     GPU memory used/free/total (MiB): 2253 / 180388 / 182642
------------------
     ethr =  1.22E-09,  avg # of iterations =  5.7

     total cpu time spent up to now is       14.8 secs

     total energy              =    -936.82904669 Ry
     estimated scf accuracy    <       0.00000011 Ry
[tb_dev] Currently allocated     0.00E+00 Mbytes, locked:    0 /   0
[tb_pin] Currently allocated     0.00E+00 Mbytes, locked:    0 /   0

     iteration # 25     ecut=    60.00 Ry     beta= 0.70
     Davidson diagonalization with overlap

---- Real-time Memory Report at c_bands before calling an iterative solver
          1051 MiB given to the printing process from OS
           629 MiB allocation reported by mallinfo(arena+hblkhd)
       1898812 MiB available memory on the node where the printing process lives
     GPU memory used/free/total (MiB): 2253 / 180388 / 182642
------------------
     ethr =  1.55E-10,  avg # of iterations =  6.6

     total cpu time spent up to now is       15.6 secs

     total energy              =    -936.82904647 Ry
     estimated scf accuracy    <       0.00000051 Ry
[tb_dev] Currently allocated     0.00E+00 Mbytes, locked:    0 /   0
[tb_pin] Currently allocated     0.00E+00 Mbytes, locked:    0 /   0

     iteration # 26     ecut=    60.00 Ry     beta= 0.70
     Davidson diagonalization with overlap

---- Real-time Memory Report at c_bands before calling an iterative solver
          1051 MiB given to the printing process from OS
           629 MiB allocation reported by mallinfo(arena+hblkhd)
       1898778 MiB available memory on the node where the printing process lives
     GPU memory used/free/total (MiB): 2253 / 180388 / 182642
------------------
     ethr =  1.55E-10,  avg # of iterations =  7.4

     total cpu time spent up to now is       16.6 secs

     total energy              =    -936.82904656 Ry
     estimated scf accuracy    <       0.00000062 Ry
[tb_dev] Currently allocated     0.00E+00 Mbytes, locked:    0 /   0
[tb_pin] Currently allocated     0.00E+00 Mbytes, locked:    0 /   0

     iteration # 27     ecut=    60.00 Ry     beta= 0.70
     Davidson diagonalization with overlap

---- Real-time Memory Report at c_bands before calling an iterative solver
          1051 MiB given to the printing process from OS
           629 MiB allocation reported by mallinfo(arena+hblkhd)
       1898794 MiB available memory on the node where the printing process lives
     GPU memory used/free/total (MiB): 2253 / 180388 / 182642
------------------
     ethr =  1.55E-10,  avg # of iterations =  6.2

     total cpu time spent up to now is       17.4 secs

     total energy              =    -936.82904671 Ry
     estimated scf accuracy    <       0.00000001 Ry
[tb_dev] Currently allocated     0.00E+00 Mbytes, locked:    0 /   0
[tb_pin] Currently allocated     0.00E+00 Mbytes, locked:    0 /   0

     iteration # 28     ecut=    60.00 Ry     beta= 0.70
     Davidson diagonalization with overlap

---- Real-time Memory Report at c_bands before calling an iterative solver
          1051 MiB given to the printing process from OS
           629 MiB allocation reported by mallinfo(arena+hblkhd)
       1898784 MiB available memory on the node where the printing process lives
     GPU memory used/free/total (MiB): 2253 / 180388 / 182642
------------------
     ethr =  1.50E-11,  avg # of iterations =  5.3

     total cpu time spent up to now is       18.1 secs

     total energy              =    -936.82904671 Ry
     estimated scf accuracy    <       0.00000002 Ry
[tb_dev] Currently allocated     0.00E+00 Mbytes, locked:    0 /   0
[tb_pin] Currently allocated     0.00E+00 Mbytes, locked:    0 /   0

     iteration # 29     ecut=    60.00 Ry     beta= 0.70
     Davidson diagonalization with overlap

---- Real-time Memory Report at c_bands before calling an iterative solver
          1051 MiB given to the printing process from OS
           629 MiB allocation reported by mallinfo(arena+hblkhd)
       1898780 MiB available memory on the node where the printing process lives
     GPU memory used/free/total (MiB): 2253 / 180388 / 182642
------------------
     ethr =  1.50E-11,  avg # of iterations =  1.0

     total cpu time spent up to now is       18.4 secs

     total energy              =    -936.82904670 Ry
     estimated scf accuracy    <       0.00000001 Ry
[tb_dev] Currently allocated     0.00E+00 Mbytes, locked:    0 /   0
[tb_pin] Currently allocated     0.00E+00 Mbytes, locked:    0 /   0

     iteration # 30     ecut=    60.00 Ry     beta= 0.70
     Davidson diagonalization with overlap

---- Real-time Memory Report at c_bands before calling an iterative solver
          1051 MiB given to the printing process from OS
           629 MiB allocation reported by mallinfo(arena+hblkhd)
       1898802 MiB available memory on the node where the printing process lives
     GPU memory used/free/total (MiB): 2253 / 180388 / 182642
------------------
     ethr =  1.50E-11,  avg # of iterations =  3.3

     total cpu time spent up to now is       19.0 secs

     total energy              =    -936.82904670 Ry
     estimated scf accuracy    <          3.7E-10 Ry
[tb_dev] Currently allocated     0.00E+00 Mbytes, locked:    0 /   0
[tb_pin] Currently allocated     0.00E+00 Mbytes, locked:    0 /   0

     iteration # 31     ecut=    60.00 Ry     beta= 0.70
     Davidson diagonalization with overlap

---- Real-time Memory Report at c_bands before calling an iterative solver
          1051 MiB given to the printing process from OS
           629 MiB allocation reported by mallinfo(arena+hblkhd)
       1898787 MiB available memory on the node where the printing process lives
     GPU memory used/free/total (MiB): 2253 / 180388 / 182642
------------------
     ethr =  5.48E-13,  avg # of iterations =  5.6

     total cpu time spent up to now is       19.7 secs

     total energy              =    -936.82904670 Ry
     estimated scf accuracy    <          4.5E-10 Ry
[tb_dev] Currently allocated     0.00E+00 Mbytes, locked:    0 /   0
[tb_pin] Currently allocated     0.00E+00 Mbytes, locked:    0 /   0

     iteration # 32     ecut=    60.00 Ry     beta= 0.70
     Davidson diagonalization with overlap

---- Real-time Memory Report at c_bands before calling an iterative solver
          1051 MiB given to the printing process from OS
           629 MiB allocation reported by mallinfo(arena+hblkhd)
       1898836 MiB available memory on the node where the printing process lives
     GPU memory used/free/total (MiB): 2253 / 180388 / 182642
------------------
     ethr =  5.48E-13,  avg # of iterations =  2.1

     total cpu time spent up to now is       20.2 secs

     total energy              =    -936.82904670 Ry
     estimated scf accuracy    <          1.2E-10 Ry
[tb_dev] Currently allocated     0.00E+00 Mbytes, locked:    0 /   0
[tb_pin] Currently allocated     0.00E+00 Mbytes, locked:    0 /   0

     iteration # 33     ecut=    60.00 Ry     beta= 0.70
     Davidson diagonalization with overlap

---- Real-time Memory Report at c_bands before calling an iterative solver
          1051 MiB given to the printing process from OS
           629 MiB allocation reported by mallinfo(arena+hblkhd)
       1898845 MiB available memory on the node where the printing process lives
     GPU memory used/free/total (MiB): 2253 / 180388 / 182642
------------------
     ethr =  1.81E-13,  avg # of iterations =  5.2

     total cpu time spent up to now is       20.9 secs

     total energy              =    -936.82904670 Ry
     estimated scf accuracy    <          1.9E-11 Ry
[tb_dev] Currently allocated     0.00E+00 Mbytes, locked:    0 /   0
[tb_pin] Currently allocated     0.00E+00 Mbytes, locked:    0 /   0

     iteration # 34     ecut=    60.00 Ry     beta= 0.70
     Davidson diagonalization with overlap

---- Real-time Memory Report at c_bands before calling an iterative solver
          1051 MiB given to the printing process from OS
           629 MiB allocation reported by mallinfo(arena+hblkhd)
       1898846 MiB available memory on the node where the printing process lives
     GPU memory used/free/total (MiB): 2253 / 180388 / 182642
------------------
     ethr =  1.00E-13,  avg # of iterations =  1.0

     total cpu time spent up to now is       21.3 secs

     total energy              =    -936.82904670 Ry
     estimated scf accuracy    <          1.4E-11 Ry
[tb_dev] Currently allocated     0.00E+00 Mbytes, locked:    0 /   0
[tb_pin] Currently allocated     0.00E+00 Mbytes, locked:    0 /   0

     iteration # 35     ecut=    60.00 Ry     beta= 0.70
     Davidson diagonalization with overlap

---- Real-time Memory Report at c_bands before calling an iterative solver
          1051 MiB given to the printing process from OS
           629 MiB allocation reported by mallinfo(arena+hblkhd)
       1898792 MiB available memory on the node where the printing process lives
     GPU memory used/free/total (MiB): 2253 / 180388 / 182642
------------------
     ethr =  1.00E-13,  avg # of iterations =  1.0

     total cpu time spent up to now is       21.7 secs

     total energy              =    -936.82904670 Ry
     estimated scf accuracy    <          2.5E-12 Ry
[tb_dev] Currently allocated     0.00E+00 Mbytes, locked:    0 /   0
[tb_pin] Currently allocated     0.00E+00 Mbytes, locked:    0 /   0

     iteration # 36     ecut=    60.00 Ry     beta= 0.70
     Davidson diagonalization with overlap

---- Real-time Memory Report at c_bands before calling an iterative solver
          1051 MiB given to the printing process from OS
           629 MiB allocation reported by mallinfo(arena+hblkhd)
       1898792 MiB available memory on the node where the printing process lives
     GPU memory used/free/total (MiB): 2253 / 180388 / 182642
------------------
     ethr =  1.00E-13,  avg # of iterations =  1.0

     total cpu time spent up to now is       22.1 secs

     End of self-consistent calculation

          k = 0.0000 0.0000 0.0000 (  5373 PWs)   bands (ev):

   -45.9776 -45.9567 -33.9101 -33.9062 -22.4409 -22.4409 -22.3558 -22.2363
   -22.2363 -22.1187  -9.2054  -8.5219  -8.5219  -7.3681  -7.1522  -7.1522
     3.1420   3.1420   3.3183   3.3802   3.3802   4.5066   5.7315   5.7636
     5.7636   6.5228   7.0487   7.0487   7.1976   7.1976   7.2243   7.4054
     7.8432   7.8432

     occupation numbers 
     1.0000   1.0000   1.0000   1.0000   1.0000   1.0000   1.0000   1.0000
     1.0000   1.0000   1.0000   1.0000   1.0000   1.0000   1.0000   1.0000
     1.0000   1.0000   1.0000   1.0000   1.0000   1.0000   1.0000   1.0000
     1.0000   1.0000   1.0000   1.0000   1.0000   1.0000   1.0000   1.0000
     1.0000   1.0000

          k = 0.0000-0.2039 0.0663 (  5337 PWs)   bands (ev):

   -45.9761 -45.9581 -33.9099 -33.9065 -22.4298 -22.4280 -22.3397 -22.2523
   -22.2509 -22.1346  -9.0813  -8.4477  -8.4446  -7.4618  -7.2799  -7.2605
     3.0762   3.1756   3.4513   3.6876   3.7121   4.5484   5.3856   5.4743
     5.5585   6.5240   6.7817   7.0391   7.0483   7.3424   7.4033   7.4835
     7.6954   7.7753

     occupation numbers 
     1.0000   1.0000   1.0000   1.0000   1.0000   1.0000   1.0000   1.0000
     1.0000   1.0000   1.0000   1.0000   1.0000   1.0000   1.0000   1.0000
     1.0000   1.0000   1.0000   1.0000   1.0000   1.0000   1.0000   1.0000
     1.0000   1.0000   1.0000   1.0000   1.0000   1.0000   1.0000   1.0000
     1.0000   1.0000

          k = 0.0000-0.4079 0.1325 (  5356 PWs)   bands (ev):

   -45.9723 -45.9619 -33.9092 -33.9072 -22.3973 -22.3923 -22.2963 -22.2944
   -22.2899 -22.1779  -8.7388  -8.2465  -8.2306  -7.7457  -7.5851  -7.5364
     3.2494   3.4128   3.7672   4.2883   4.3050   4.6260   4.6354   5.0267
     5.2570   6.0065   6.3406   6.6639   7.2691   7.3687   7.3834   7.5345
     7.6538   7.7958

     occupation numbers 
     1.0000   1.0000   1.0000   1.0000   1.0000   1.0000   1.0000   1.0000
     1.0000   1.0000   1.0000   1.0000   1.0000   1.0000   1.0000   1.0000
     1.0000   1.0000   1.0000   1.0000   1.0000   1.0000   1.0000   1.0000
     1.0000   1.0000   1.0000   1.0000   1.0000   1.0000   1.0000   1.0000
     1.0000   1.0000

          k =-0.0000 0.6118-0.1988 (  5328 PWs)   bands (ev):

   -45.9670 -45.9670 -33.9083 -33.9083 -22.3483 -22.3483 -22.3421 -22.3421
   -22.2370 -22.2370  -8.2804  -8.2804  -7.9458  -7.9458  -7.8420  -7.8420
     3.6565   3.6565   3.9229   3.9229   4.4987   4.4987   5.0012   5.0012
     5.4580   5.4580   5.9636   5.9636   7.4240   7.4240   7.5786   7.5786
     7.6515   7.6515

     occupation numbers 
     1.0000   1.0000   1.0000   1.0000   1.0000   1.0000   1.0000   1.0000
     1.0000   1.0000   1.0000   1.0000   1.0000   1.0000   1.0000   1.0000
     1.0000   1.0000   1.0000   1.0000   1.0000   1.0000   1.0000   1.0000
     1.0000   1.0000   1.0000   1.0000   1.0000   1.0000   1.0000   1.0000
     1.0000   1.0000

          k =-0.1766-0.1020 0.1325 (  5342 PWs)   bands (ev):

   -45.9758 -45.9584 -33.9098 -33.9065 -22.4446 -22.4173 -22.3254 -22.2828
   -22.2337 -22.1321  -9.0747  -8.4986  -8.3268  -7.6023  -7.2820  -7.1958
     3.1459   3.1781   3.3476   3.6765   3.8450   4.7039   4.9864   5.6619
     5.7316   6.5221   6.7062   6.8970   7.0960   7.1686   7.3302   7.4621
     7.7362   7.7879

     occupation numbers 
     1.0000   1.0000   1.0000   1.0000   1.0000   1.0000   1.0000   1.0000
     1.0000   1.0000   1.0000   1.0000   1.0000   1.0000   1.0000   1.0000
     1.0000   1.0000   1.0000   1.0000   1.0000   1.0000   1.0000   1.0000
     1.0000   1.0000   1.0000   1.0000   1.0000   1.0000   1.0000   1.0000
     1.0000   1.0000

          k =-0.1766-0.3059 0.1988 (  5341 PWs)   bands (ev):

   -45.9731 -45.9611 -33.9094 -33.9071 -22.4357 -22.3965 -22.3359 -22.2767
   -22.2472 -22.1521  -8.8783  -8.4042  -8.0864  -7.9075  -7.4123  -7.3475
     3.0666   3.3587   3.7607   3.9656   4.1635   4.4264   5.0007   5.2220
     5.6294   6.1756   6.5754   6.8522   6.9941   7.1262   7.2603   7.5062
     7.6330   7.7849

     occupation numbers 
     1.0000   1.0000   1.0000   1.0000   1.0000   1.0000   1.0000   1.0000
     1.0000   1.0000   1.0000   1.0000   1.0000   1.0000   1.0000   1.0000
     1.0000   1.0000   1.0000   1.0000   1.0000   1.0000   1.0000   1.0000
     1.0000   1.0000   1.0000   1.0000   1.0000   1.0000   1.0000   1.0000
     1.0000   1.0000

          k =-0.1766 0.7138-0.1325 (  5344 PWs)   bands (ev):

   -45.9688 -45.9653 -33.9086 -33.9080 -22.4027 -22.3886 -22.3562 -22.2878
   -22.2209 -22.1956  -8.5241  -8.3184  -8.1826  -7.7214  -7.7084  -7.6327
     3.2655   3.5339   3.7838   4.2166   4.4507   4.5645   4.8037   5.0601
     5.3265   5.8218   6.2793   6.5948   7.0410   7.3001   7.3220   7.4388
     7.6407   7.7440

     occupation numbers 
     1.0000   1.0000   1.0000   1.0000   1.0000   1.0000   1.0000   1.0000
     1.0000   1.0000   1.0000   1.0000   1.0000   1.0000   1.0000   1.0000
     1.0000   1.0000   1.0000   1.0000   1.0000   1.0000   1.0000   1.0000
     1.0000   1.0000   1.0000   1.0000   1.0000   1.0000   1.0000   1.0000
     1.0000   1.0000

          k =-0.1766 0.5099-0.0663 (  5354 PWs)   bands (ev):

   -45.9701 -45.9641 -33.9089 -33.9077 -22.4247 -22.3519 -22.3415 -22.3045
   -22.2529 -22.1759  -8.6533  -8.1541  -8.0572  -7.9407  -7.8516  -7.4250
     3.2207   3.6475   3.8042   3.9476   4.1850   4.6500   4.9598   5.1562
     5.4455   5.8587   6.1430   6.8531   6.9419   7.1390   7.3788   7.5792
     7.6286   7.7739

     occupation numbers 
     1.0000   1.0000   1.0000   1.0000   1.0000   1.0000   1.0000   1.0000
     1.0000   1.0000   1.0000   1.0000   1.0000   1.0000   1.0000   1.0000
     1.0000   1.0000   1.0000   1.0000   1.0000   1.0000   1.0000   1.0000
     1.0000   1.0000   1.0000   1.0000   1.0000   1.0000   1.0000   1.0000
     1.0000   1.0000

          k =-0.1766 0.3059 0.0000 (  5344 PWs)   bands (ev):

   -45.9740 -45.9601 -33.9095 -33.9069 -22.4363 -22.3928 -22.3081 -22.2960
   -22.2609 -22.1489  -8.9217  -8.3751  -8.2568  -7.6638  -7.5417  -7.2669
     3.1097   3.2988   3.6374   3.7119   4.3019   4.6303   4.7786   5.1094
     5.7385   6.3889   6.6460   6.8146   7.1005   7.2415   7.3578   7.5227
     7.5799   7.8238

     occupation numbers 
     1.0000   1.0000   1.0000   1.0000   1.0000   1.0000   1.0000   1.0000
     1.0000   1.0000   1.0000   1.0000   1.0000   1.0000   1.0000   1.0000
     1.0000   1.0000   1.0000   1.0000   1.0000   1.0000   1.0000   1.0000
     1.0000   1.0000   1.0000   1.0000   1.0000   1.0000   1.0000   1.0000
     1.0000   1.0000

          k =-0.3532-0.2039 0.2650 (  5346 PWs)   bands (ev):

   -45.9723 -45.9619 -33.9093 -33.9072 -22.4521 -22.4075 -22.3918 -22.2293
   -22.2231 -22.1393  -8.8986  -8.4512  -8.2037  -7.7997  -7.3481  -7.2871
     3.0963   3.2011   3.5251   3.6874   4.2424   4.5797   5.3043   5.5194
     6.0214   6.2256   6.4648   6.7243   6.7954   7.0857   7.1175   7.4178
     7.4635   7.6933

     occupation numbers 
     1.0000   1.0000   1.0000   1.0000   1.0000   1.0000   1.0000   1.0000
     1.0000   1.0000   1.0000   1.0000   1.0000   1.0000   1.0000   1.0000
     1.0000   1.0000   1.0000   1.0000   1.0000   1.0000   1.0000   1.0000
     1.0000   1.0000   1.0000   1.0000   1.0000   1.0000   1.0000   1.0000
     1.0000   1.0000

          k =-0.3532 0.8158-0.0663 (  5345 PWs)   bands (ev):

   -45.9700 -45.9640 -33.9089 -33.9077 -22.4421 -22.4315 -22.3929 -22.2428
   -22.1820 -22.1550  -8.7483  -8.4483  -8.3550  -7.5502  -7.4651  -7.4213
     3.0241   3.2303   3.4525   3.7987   4.4894   4.8666   5.0813   5.5298
     5.7977   6.2075   6.4555   6.6128   6.7743   6.9714   7.1623   7.2711
     7.4948   7.7320

     occupation numbers 
     1.0000   1.0000   1.0000   1.0000   1.0000   1.0000   1.0000   1.0000
     1.0000   1.0000   1.0000   1.0000   1.0000   1.0000   1.0000   1.0000
     1.0000   1.0000   1.0000   1.0000   1.0000   1.0000   1.0000   1.0000
     1.0000   1.0000   1.0000   1.0000   1.0000   1.0000   1.0000   1.0000
     1.0000   1.0000

          k =-0.3532 0.6118 0.0000 (  5340 PWs)   bands (ev):

   -45.9670 -45.9670 -33.9083 -33.9083 -22.4430 -22.4059 -22.3530 -22.2851
   -22.1971 -22.1663  -8.5940  -8.4528  -8.1562  -7.7609  -7.6658  -7.4050
     3.0897   3.2776   3.7672   4.0753   4.4220   4.5440   4.9980   5.4098
     5.6966   5.9795   6.3038   6.5394   6.9718   7.0204   7.1868   7.4538
     7.5159   7.7621

     occupation numbers 
     1.0000   1.0000   1.0000   1.0000   1.0000   1.0000   1.0000   1.0000
     1.0000   1.0000   1.0000   1.0000   1.0000   1.0000   1.0000   1.0000
     1.0000   1.0000   1.0000   1.0000   1.0000   1.0000   1.0000   1.0000
     1.0000   1.0000   1.0000   1.0000   1.0000   1.0000   1.0000   1.0000
     1.0000   1.0000

          k = 0.5299 0.3059-0.3975 (  5328 PWs)   bands (ev):

   -45.9705 -45.9636 -33.9090 -33.9076 -22.4562 -22.4477 -22.4081 -22.2258
   -22.1661 -22.1395  -8.8319  -8.5038  -8.4122  -7.4838  -7.3735  -7.3324
     3.0766   3.0917   3.1892   3.4727   4.8207   5.0963   5.3723   5.7453
     5.8487   5.9850   6.4140   6.4913   6.7998   6.9279   7.1565   7.2516
     7.4404   7.6486

     occupation numbers 
     1.0000   1.0000   1.0000   1.0000   1.0000   1.0000   1.0000   1.0000
     1.0000   1.0000   1.0000   1.0000   1.0000   1.0000   1.0000   1.0000
     1.0000   1.0000   1.0000   1.0000   1.0000   1.0000   1.0000   1.0000
     1.0000   1.0000   1.0000   1.0000   1.0000   1.0000   1.0000   1.0000
     1.0000   1.0000

          k = 0.0000 0.0000 0.1988 (  5334 PWs)   bands (ev):

   -45.9761 -45.9581 -33.9098 -33.9065 -22.4278 -22.4278 -22.3411 -22.2506
   -22.2506 -22.1358  -9.0943  -8.4396  -8.4396  -7.5066  -7.2560  -7.2560
     3.2363   3.2363   3.4721   3.6241   3.6241   4.6132   5.4865   5.5325
     5.5325   6.6397   6.6835   6.6835   6.9709   7.2041   7.2041   7.4459
     7.8668   7.8668

     occupation numbers 
     1.0000   1.0000   1.0000   1.0000   1.0000   1.0000   1.0000   1.0000
     1.0000   1.0000   1.0000   1.0000   1.0000   1.0000   1.0000   1.0000
     1.0000   1.0000   1.0000   1.0000   1.0000   1.0000   1.0000   1.0000
     1.0000   1.0000   1.0000   1.0000   1.0000   1.0000   1.0000   1.0000
     1.0000   1.0000

          k = 0.0000-0.2039 0.2650 (  5340 PWs)   bands (ev):

   -45.9740 -45.9602 -33.9095 -33.9069 -22.4366 -22.3885 -22.3107 -22.2926
   -22.2622 -22.1501  -8.9400  -8.3637  -8.2500  -7.7289  -7.4965  -7.2708
     3.1550   3.3522   3.6939   3.9356   4.1476   4.7433   4.9602   5.1173
     5.5126   6.1053   6.5266   6.7999   6.8550   7.2284   7.3866   7.4388
     7.7307   7.7960

     occupation numbers 
     1.0000   1.0000   1.0000   1.0000   1.0000   1.0000   1.0000   1.0000
     1.0000   1.0000   1.0000   1.0000   1.0000   1.0000   1.0000   1.0000
     1.0000   1.0000   1.0000   1.0000   1.0000   1.0000   1.0000   1.0000
     1.0000   1.0000   1.0000   1.0000   1.0000   1.0000   1.0000   1.0000
     1.0000   1.0000

          k = 0.0000 0.8158-0.0663 (  5342 PWs)   bands (ev):

   -45.9701 -45.9640 -33.9088 -33.9077 -22.4261 -22.3474 -22.3364 -22.3083
   -22.2557 -22.1759  -8.6590  -8.1419  -8.1248  -7.9224  -7.8091  -7.4405
     3.1718   3.5770   4.1049   4.2050   4.3752   4.6311   4.6618   5.1717
     5.3714   5.4920   6.1959   6.7326   7.0575   7.1319   7.4317   7.4776
     7.6337   7.6871

     occupation numbers 
     1.0000   1.0000   1.0000   1.0000   1.0000   1.0000   1.0000   1.0000
     1.0000   1.0000   1.0000   1.0000   1.0000   1.0000   1.0000   1.0000
     1.0000   1.0000   1.0000   1.0000   1.0000   1.0000   1.0000   1.0000
     1.0000   1.0000   1.0000   1.0000   1.0000   1.0000   1.0000   1.0000
     1.0000   1.0000

          k = 0.0000 0.6118 0.0000 (  5348 PWs)   bands (ev):

   -45.9688 -45.9653 -33.9086 -33.9079 -22.3994 -22.3902 -22.3605 -22.2843
   -22.2202 -22.1972  -8.5301  -8.3176  -8.1696  -7.7392  -7.7163  -7.6147
     3.4424   3.5575   3.6856   3.8713   4.3335   4.6424   4.9789   5.2000
     5.5197   5.8001   6.2362   6.4642   7.0203   7.2617   7.3274   7.4888
     7.5437   7.7707

     occupation numbers 
     1.0000   1.0000   1.0000   1.0000   1.0000   1.0000   1.0000   1.0000
     1.0000   1.0000   1.0000   1.0000   1.0000   1.0000   1.0000   1.0000
     1.0000   1.0000   1.0000   1.0000   1.0000   1.0000   1.0000   1.0000
     1.0000   1.0000   1.0000   1.0000   1.0000   1.0000   1.0000   1.0000
     1.0000   1.0000

          k = 0.0000 0.4079 0.0663 (  5352 PWs)   bands (ev):

   -45.9731 -45.9611 -33.9094 -33.9071 -22.4345 -22.3989 -22.3371 -22.2760
   -22.2463 -22.1522  -8.8730  -8.4115  -8.0673  -7.9164  -7.4232  -7.3366
     3.2158   3.3336   3.4110   4.1058   4.1167   4.3311   5.0117   5.3686
     5.6328   6.3798   6.6217   6.8575   6.9476   7.0555   7.2788   7.5014
     7.6153   7.7903

     occupation numbers 
     1.0000   1.0000   1.0000   1.0000   1.0000   1.0000   1.0000   1.0000
     1.0000   1.0000   1.0000   1.0000   1.0000   1.0000   1.0000   1.0000
     1.0000   1.0000   1.0000   1.0000   1.0000   1.0000   1.0000   1.0000
     1.0000   1.0000   1.0000   1.0000   1.0000   1.0000   1.0000   1.0000
     1.0000   1.0000

          k =-0.1766-0.1020 0.3313 (  5333 PWs)   bands (ev):

   -45.9731 -45.9611 -33.9093 -33.9071 -22.4340 -22.3957 -22.3347 -22.2779
   -22.2457 -22.1537  -8.8978  -8.3926  -8.0600  -7.9531  -7.4297  -7.3269
     3.2922   3.3367   3.7597   4.0766   4.0805   4.4561   5.0526   5.3689
     5.5146   6.1218   6.3605   6.8272   6.8428   6.9907   7.1343   7.4894
     7.6627   7.7897

     occupation numbers 
     1.0000   1.0000   1.0000   1.0000   1.0000   1.0000   1.0000   1.0000
     1.0000   1.0000   1.0000   1.0000   1.0000   1.0000   1.0000   1.0000
     1.0000   1.0000   1.0000   1.0000   1.0000   1.0000   1.0000   1.0000
     1.0000   1.0000   1.0000   1.0000   1.0000   1.0000   1.0000   1.0000
     1.0000   1.0000

          k =-0.1766 0.9178 0.0000 (  5329 PWs)   bands (ev):

   -45.9705 -45.9636 -33.9089 -33.9076 -22.4411 -22.3896 -22.3664 -22.2671
   -22.2233 -22.1587  -8.7594  -8.2859  -8.2561  -7.7632  -7.6443  -7.3476
     3.1403   3.4356   3.7675   4.1692   4.2689   4.6321   4.8372   5.3595
     5.6347   6.0035   6.3776   6.5980   6.8174   6.9743   7.1995   7.4074
     7.5581   7.6850

     occupation numbers 
     1.0000   1.0000   1.0000   1.0000   1.0000   1.0000   1.0000   1.0000
     1.0000   1.0000   1.0000   1.0000   1.0000   1.0000   1.0000   1.0000
     1.0000   1.0000   1.0000   1.0000   1.0000   1.0000   1.0000   1.0000
     1.0000   1.0000   1.0000   1.0000   1.0000   1.0000   1.0000   1.0000
     1.0000   1.0000

          k =-0.1766 0.7138 0.0663 (  5343 PWs)   bands (ev):

   -45.9670 -45.9670 -33.9083 -33.9083 -22.4297 -22.4281 -22.3177 -22.3152
   -22.1799 -22.1790  -8.5514  -8.5344  -8.0440  -7.9288  -7.5024  -7.4818
     3.1650   3.3018   3.6947   3.9784   4.4916   4.8974   4.9323   5.2278
     5.5732   5.9910   6.4945   6.6193   6.6857   6.9883   7.1986   7.3890
     7.5562   7.6888

     occupation numbers 
     1.0000   1.0000   1.0000   1.0000   1.0000   1.0000   1.0000   1.0000
     1.0000   1.0000   1.0000   1.0000   1.0000   1.0000   1.0000   1.0000
     1.0000   1.0000   1.0000   1.0000   1.0000   1.0000   1.0000   1.0000
     1.0000   1.0000   1.0000   1.0000   1.0000   1.0000   1.0000   1.0000
     1.0000   1.0000

          k =-0.1766 0.5099 0.1325 (  5344 PWs)   bands (ev):

   -45.9705 -45.9636 -33.9090 -33.9076 -22.4411 -22.3913 -22.3691 -22.2670
   -22.2220 -22.1580  -8.7451  -8.2941  -8.2375  -7.7628  -7.6527  -7.3403
     3.0945   3.4480   3.6042   3.8910   4.2551   4.6832   4.8759   5.4999
     5.6679   6.2207   6.3211   6.6481   6.9591   7.1339   7.2244   7.3365
     7.5468   7.7728

     occupation numbers 
     1.0000   1.0000   1.0000   1.0000   1.0000   1.0000   1.0000   1.0000
     1.0000   1.0000   1.0000   1.0000   1.0000   1.0000   1.0000   1.0000
     1.0000   1.0000   1.0000   1.0000   1.0000   1.0000   1.0000   1.0000
     1.0000   1.0000   1.0000   1.0000   1.0000   1.0000   1.0000   1.0000
     1.0000   1.0000

          k = 0.7065 0.4079-0.3313 (  5338 PWs)   bands (ev):

   -45.9701 -45.9640 -33.9089 -33.9077 -22.4407 -22.4310 -22.3932 -22.2413
   -22.1823 -22.1562  -8.7618  -8.4556  -8.3437  -7.5539  -7.4837  -7.4057
     3.2388   3.3004   3.3087   3.7557   4.5944   4.7781   5.1838   5.4815
     5.9828   6.0843   6.4447   6.4703   6.8138   6.9058   7.1001   7.1560
     7.3688   7.7203

     occupation numbers 
     1.0000   1.0000   1.0000   1.0000   1.0000   1.0000   1.0000   1.0000
     1.0000   1.0000   1.0000   1.0000   1.0000   1.0000   1.0000   1.0000
     1.0000   1.0000   1.0000   1.0000   1.0000   1.0000   1.0000   1.0000
     1.0000   1.0000   1.0000   1.0000   1.0000   1.0000   1.0000   1.0000
     1.0000   1.0000

          k = 0.7065 0.2039-0.2650 (  5343 PWs)   bands (ev):

   -45.9688 -45.9653 -33.9087 -33.9079 -22.4462 -22.4437 -22.3669 -22.2650
   -22.1663 -22.1586  -8.6884  -8.5454  -8.2418  -7.6912  -7.4457  -7.3804
     3.0833   3.1167   3.4620   4.0130   4.3039   5.0800   5.2421   5.4572
     5.9137   6.0694   6.3020   6.4461   6.7265   6.9055   7.1876   7.3106
     7.4312   7.7116

     occupation numbers 
     1.0000   1.0000   1.0000   1.0000   1.0000   1.0000   1.0000   1.0000
     1.0000   1.0000   1.0000   1.0000   1.0000   1.0000   1.0000   1.0000
     1.0000   1.0000   1.0000   1.0000   1.0000   1.0000   1.0000   1.0000
     1.0000   1.0000   1.0000   1.0000   1.0000   1.0000   1.0000   1.0000
     1.0000   1.0000

          k = 0.7065-0.0000-0.1988 (  5352 PWs)   bands (ev):

   -45.9670 -45.9670 -33.9083 -33.9083 -22.4291 -22.4291 -22.3170 -22.3170
   -22.1790 -22.1790  -8.5390  -8.5390  -7.9902  -7.9902  -7.4883  -7.4883
     3.1791   3.1791   3.8622   3.8622   4.6115   4.6115   5.1108   5.1108
     5.7745   5.7745   6.5756   6.5756   6.9277   6.9277   7.3022   7.3022
     7.6609   7.6609

     occupation numbers 
     1.0000   1.0000   1.0000   1.0000   1.0000   1.0000   1.0000   1.0000
     1.0000   1.0000   1.0000   1.0000   1.0000   1.0000   1.0000   1.0000
     1.0000   1.0000   1.0000   1.0000   1.0000   1.0000   1.0000   1.0000
     1.0000   1.0000   1.0000   1.0000   1.0000   1.0000   1.0000   1.0000
     1.0000   1.0000

          k = 0.5299 0.3059-0.1988 (  5352 PWs)   bands (ev):

   -45.9700 -45.9640 -33.9089 -33.9077 -22.4410 -22.4318 -22.3943 -22.2416
   -22.1819 -22.1557  -8.7505  -8.4514  -8.3476  -7.5558  -7.4724  -7.4103
     3.1622   3.2969   3.2974   3.6097   4.5542   4.9004   5.2051   5.4514
     5.9222   6.0749   6.5364   6.7617   6.8151   6.8498   7.1373   7.2277
     7.3569   7.7433

     occupation numbers 
     1.0000   1.0000   1.0000   1.0000   1.0000   1.0000   1.0000   1.0000
     1.0000   1.0000   1.0000   1.0000   1.0000   1.0000   1.0000   1.0000
     1.0000   1.0000   1.0000   1.0000   1.0000   1.0000   1.0000   1.0000
     1.0000   1.0000   1.0000   1.0000   1.0000   1.0000   1.0000   1.0000
     1.0000   1.0000

          k = 0.0000 0.0000 0.3975 (  5352 PWs)   bands (ev):

   -45.9723 -45.9619 -33.9092 -33.9072 -22.3915 -22.3915 -22.3001 -22.2893
   -22.2893 -22.1817  -8.7837  -8.2090  -8.2090  -7.8710  -7.5287  -7.5287
     3.5879   3.5879   3.8693   4.2277   4.2277   4.9116   4.9116   4.9575
     4.9661   5.9420   5.9420   6.3380   6.9246   7.2938   7.2938   7.4204
     7.7676   7.7676

     occupation numbers 
     1.0000   1.0000   1.0000   1.0000   1.0000   1.0000   1.0000   1.0000
     1.0000   1.0000   1.0000   1.0000   1.0000   1.0000   1.0000   1.0000
     1.0000   1.0000   1.0000   1.0000   1.0000   1.0000   1.0000   1.0000
     1.0000   1.0000   1.0000   1.0000   1.0000   1.0000   1.0000   1.0000
     1.0000   1.0000

          k = 0.0000 1.0197 0.0663 (  5323 PWs)   bands (ev):

   -45.9701 -45.9641 -33.9088 -33.9077 -22.4235 -22.3468 -22.3358 -22.3054
   -22.2572 -22.1778  -8.6852  -8.1487  -8.0998  -7.9430  -7.8223  -7.4300
     3.4056   3.7409   4.0104   4.3109   4.3287   4.5982   4.8533   5.1971
     5.3196   5.3806   5.9904   6.5651   6.8980   6.9276   7.4140   7.4972
     7.5944   7.6438

     occupation numbers 
     1.0000   1.0000   1.0000   1.0000   1.0000   1.0000   1.0000   1.0000
     1.0000   1.0000   1.0000   1.0000   1.0000   1.0000   1.0000   1.0000
     1.0000   1.0000   1.0000   1.0000   1.0000   1.0000   1.0000   1.0000
     1.0000   1.0000   1.0000   1.0000   1.0000   1.0000   1.0000   1.0000
     1.0000   1.0000

          k = 0.0000 0.8158 0.1325 (  5335 PWs)   bands (ev):

   -45.9671 -45.9670 -33.9083 -33.9083 -22.4431 -22.4023 -22.3553 -22.2809
   -22.1998 -22.1666  -8.6017  -8.4807  -8.1398  -7.7657  -7.6571  -7.4137
     3.1407   3.5534   3.6635   4.1109   4.4218   4.4753   5.2330   5.3300
     5.7671   5.8906   6.3628   6.3751   6.6402   6.9671   7.2408   7.2765
     7.4511   7.7380

     occupation numbers 
     1.0000   1.0000   1.0000   1.0000   1.0000   1.0000   1.0000   1.0000
     1.0000   1.0000   1.0000   1.0000   1.0000   1.0000   1.0000   1.0000
     1.0000   1.0000   1.0000   1.0000   1.0000   1.0000   1.0000   1.0000
     1.0000   1.0000   1.0000   1.0000   1.0000   1.0000   1.0000   1.0000
     1.0000   1.0000

          k = 0.8831 0.5099-0.2650 (  5328 PWs)   bands (ev):

   -45.9688 -45.9653 -33.9086 -33.9079 -22.3985 -22.3869 -22.3563 -22.2835
   -22.2227 -22.1993  -8.5684  -8.3426  -8.1501  -7.7401  -7.7273  -7.6059
     3.6918   3.6936   3.8273   4.3042   4.4557   4.5443   4.7364   5.0260
     5.4364   5.6727   6.0376   6.2102   6.9825   7.0662   7.2295   7.4334
     7.4693   7.7046

     occupation numbers 
     1.0000   1.0000   1.0000   1.0000   1.0000   1.0000   1.0000   1.0000
     1.0000   1.0000   1.0000   1.0000   1.0000   1.0000   1.0000   1.0000
     1.0000   1.0000   1.0000   1.0000   1.0000   1.0000   1.0000   1.0000
     1.0000   1.0000   1.0000   1.0000   1.0000   1.0000   1.0000   1.0000
     1.0000   1.0000

          k = 0.8831 0.3059-0.1988 (  5326 PWs)   bands (ev):

   -45.9671 -45.9671 -33.9083 -33.9083 -22.4279 -22.4279 -22.3154 -22.3154
   -22.1803 -22.1803  -8.5575  -8.5575  -7.9831  -7.9831  -7.4926  -7.4926
     3.3455   3.3455   3.8289   3.8289   4.7792   4.7792   5.0045   5.0045
     5.8084   5.8084   6.3719   6.3719   6.8390   6.8390   7.1822   7.1822
     7.6072   7.6072

     occupation numbers 
     1.0000   1.0000   1.0000   1.0000   1.0000   1.0000   1.0000   1.0000
     1.0000   1.0000   1.0000   1.0000   1.0000   1.0000   1.0000   1.0000
     1.0000   1.0000   1.0000   1.0000   1.0000   1.0000   1.0000   1.0000
     1.0000   1.0000   1.0000   1.0000   1.0000   1.0000   1.0000   1.0000
     1.0000   1.0000

          k =-0.0000 0.0000-0.5963 (  5356 PWs)   bands (ev):

   -45.9671 -45.9671 -33.9082 -33.9082 -22.3410 -22.3410 -22.3410 -22.3410
   -22.2421 -22.2421  -8.3405  -8.3405  -7.8792  -7.8792  -7.8792  -7.8792
     4.1804   4.1804   4.1804   4.1804   4.3879   4.3879   5.0581   5.0581
     5.0581   5.0581   5.5847   5.5847   7.2301   7.2301   7.5314   7.5314
     7.5314   7.5314

     occupation numbers 
     1.0000   1.0000   1.0000   1.0000   1.0000   1.0000   1.0000   1.0000
     1.0000   1.0000   1.0000   1.0000   1.0000   1.0000   1.0000   1.0000
     1.0000   1.0000   1.0000   1.0000   1.0000   1.0000   1.0000   1.0000
     1.0000   1.0000   1.0000   1.0000   1.0000   1.0000   1.0000   1.0000
     1.0000   1.0000

     highest occupied level (ev):     7.8668

!    total energy              =    -936.82904670 Ry
     estimated scf accuracy    <          6.0E-15 Ry

     The total energy is the sum of the following terms:
     one-electron contribution =    -132.15778443 Ry
     hartree contribution      =     102.56402417 Ry
     xc contribution           =    -108.58353819 Ry
     ewald contribution        =    -335.19423806 Ry
     one-center paw contrib.   =    -463.45751018 Ry
      -> PAW hartree energy AE =     297.36470859 Ry
      -> PAW hartree energy PS =    -295.82881464 Ry
      -> PAW xc energy AE      =    -561.24564866 Ry
      -> PAW xc energy PS      =      96.25224453 Ry
      -> total E_H with PAW    =     104.09991812 Ry
      -> total E_XC with PAW   =    -573.57694233 Ry

     convergence has been achieved in  36 iterations

     Forces acting on atoms (cartesian axes, Ry/au):

     atom    1 type  1   force =     0.00000000   -0.00000000   -0.00048883
     atom    2 type  1   force =     0.00000000   -0.00000000   -0.00048883
     atom    3 type  2   force =    -0.02031290    0.00665543    0.00334677
     atom    4 type  2   force =     0.00439268   -0.02091920    0.00334677
     atom    5 type  2   force =     0.01592022    0.01426377    0.00334677
     atom    6 type  2   force =    -0.00439268   -0.02091920    0.00334677
     atom    7 type  2   force =     0.02031290    0.00665543    0.00334677
     atom    8 type  2   force =    -0.01592022    0.01426377    0.00334677
     atom    9 type  3   force =     0.00000000   -0.00000000   -0.00955148
     atom   10 type  3   force =    -0.00000000    0.00000000   -0.00955148
     The non-local contrib.  to forces
     atom    1 type  1   force =    -0.00000000    0.00000000    0.01132195
     atom    2 type  1   force =     0.00000000    0.00000000    0.01132195
     atom    3 type  2   force =     0.29591791   -0.17651427   -0.04244906
     atom    4 type  2   force =     0.00490689    0.34452956   -0.04244906
     atom    5 type  2   force =    -0.30082480   -0.16801529   -0.04244906
     atom    6 type  2   force =    -0.00490689    0.34452956   -0.04244906
     atom    7 type  2   force =    -0.29591791   -0.17651427   -0.04244906
     atom    8 type  2   force =     0.30082480   -0.16801529   -0.04244906
     atom    9 type  3   force =    -0.00000000   -0.00000000   -0.02297074
     atom   10 type  3   force =    -0.00000000   -0.00000000   -0.02297074
     The ionic contribution  to forces
     atom    1 type  1   force =    -0.00000000   -0.00000000   -1.16469839
     atom    2 type  1   force =    -0.00000000   -0.00000000   -1.16469839
     atom    3 type  2   force =    -3.74848673    2.83368614    0.37893138
     atom    4 type  2   force =    -0.57980082   -4.66312780    0.37893138
     atom    5 type  2   force =     4.32828755    1.82944166    0.37893138
     atom    6 type  2   force =     0.57980082   -4.66312780    0.37893138
     atom    7 type  2   force =     3.74848673    2.83368614    0.37893138
     atom    8 type  2   force =    -4.32828755    1.82944166    0.37893138
     atom    9 type  3   force =     0.00000000   -0.00000000    0.02790426
     atom   10 type  3   force =     0.00000000    0.00000000    0.02790426
     The local contribution  to forces
     atom    1 type  1   force =    -0.00000000   -0.00000000    1.15288761
     atom    2 type  1   force =     0.00000000    0.00000000    1.15288761
     atom    3 type  2   force =     3.43300057   -2.65190342   -0.33299123
     atom    4 type  2   force =     0.58011545    4.29901742   -0.33299123
     atom    5 type  2   force =    -4.01311602   -1.64711399   -0.33299123
     atom    6 type  2   force =    -0.58011545    4.29901741   -0.33299124
     atom    7 type  2   force =    -3.43300057   -2.65190342   -0.33299123
     atom    8 type  2   force =     4.01311602   -1.64711399   -0.33299123
     atom    9 type  3   force =    -0.00000000    0.00000000   -0.01070784
     atom   10 type  3   force =     0.00000000    0.00000000   -0.01070783
     The core correction contribution to forces
     atom    1 type  1   force =     0.00000000    0.00000000    0.00000000
     atom    2 type  1   force =     0.00000000    0.00000000    0.00000000
     atom    3 type  2   force =    -0.00074462    0.00138695   -0.00014431
     atom    4 type  2   force =    -0.00082883   -0.00133834   -0.00014431
     atom    5 type  2   force =     0.00157345   -0.00004862   -0.00014431
     atom    6 type  2   force =     0.00082883   -0.00133834   -0.00014431
     atom    7 type  2   force =     0.00074462    0.00138695   -0.00014431
     atom    8 type  2   force =    -0.00157345   -0.00004862   -0.00014431
     atom    9 type  3   force =    -0.00000000    0.00000000   -0.00377720
     atom   10 type  3   force =    -0.00000000   -0.00000000   -0.00377720
     The Hubbard contrib.    to forces
     atom    1 type  1   force =     0.00000000    0.00000000    0.00000000
     atom    2 type  1   force =     0.00000000    0.00000000    0.00000000
     atom    3 type  2   force =     0.00000000    0.00000000    0.00000000
     atom    4 type  2   force =     0.00000000    0.00000000    0.00000000
     atom    5 type  2   force =     0.00000000    0.00000000    0.00000000
     atom    6 type  2   force =     0.00000000    0.00000000    0.00000000
     atom    7 type  2   force =     0.00000000    0.00000000    0.00000000
     atom    8 type  2   force =     0.00000000    0.00000000    0.00000000
     atom    9 type  3   force =     0.00000000    0.00000000    0.00000000
     atom   10 type  3   force =     0.00000000    0.00000000    0.00000000
     The SCF correction term to forces
     atom    1 type  1   force =     0.00000000   -0.00000000   -0.00000000
     atom    2 type  1   force =    -0.00000000    0.00000000   -0.00000000
     atom    3 type  2   force =    -0.00000002    0.00000003    0.00000001
     atom    4 type  2   force =    -0.00000001   -0.00000003    0.00000001
     atom    5 type  2   force =     0.00000003    0.00000001    0.00000001
     atom    6 type  2   force =     0.00000001   -0.00000003    0.00000001
     atom    7 type  2   force =     0.00000002    0.00000003    0.00000001
     atom    8 type  2   force =    -0.00000003    0.00000001    0.00000001
     atom    9 type  3   force =     0.00000000   -0.00000000    0.00000004
     atom   10 type  3   force =    -0.00000000    0.00000000    0.00000004

     Total force =     0.054695     Total SCF correction =     0.000000


     Computing stress (Cartesian axis) and pressure

          total   stress  (Ry/bohr**3)                   (kbar)     P=       99.77
   0.00067043  -0.00000000   0.00000000           98.62       -0.00        0.00
   0.00000000   0.00067043   0.00000000            0.00       98.62        0.00
  -0.00000000   0.00000000   0.00069389           -0.00        0.00      102.07

     kinetic stress (kbar)  28011.78      0.00      0.00
                               -0.00  28011.78      0.00
                               -0.00      0.00  27971.87

     local   stress (kbar) -13155.46     -0.00      0.00
                               -0.00 -13155.46      0.00
                                0.00      0.00 -10824.19

     nonloc. stress (kbar)   7266.52     -0.00      0.00
                               -0.00   7266.52      0.00
                                0.00      0.00   7319.75

     hartree stress (kbar)   7576.60     -0.00     -0.00
                               -0.00   7576.60      0.00
                               -0.00      0.00   7017.01

     exc-cor stress (kbar)   1107.26      0.00     -0.00
                                0.00   1107.26     -0.00
                               -0.00     -0.00   1103.66

     corecor stress (kbar)  -7148.63     -0.00      0.00
                               -0.00  -7148.63      0.00
                                0.00      0.00  -7149.41

     ewald   stress (kbar) -23559.44      0.00     -0.00
                                0.00 -23559.44     -0.00
                               -0.00     -0.00 -25336.61

     hubbard stress (kbar)      0.00      0.00      0.00
                                0.00      0.00      0.00
                                0.00      0.00      0.00

     DFT-D   stress (kbar)      0.00      0.00      0.00
                                0.00      0.00      0.00
                                0.00      0.00      0.00

     XDM     stress (kbar)      0.00      0.00      0.00
                                0.00      0.00      0.00
                                0.00      0.00      0.00

     dft-nl  stress (kbar)      0.00      0.00      0.00
                                0.00      0.00      0.00
                                0.00      0.00      0.00

     TS-vdW  stress (kbar)      0.00      0.00      0.00
                                0.00      0.00      0.00
                                0.00      0.00      0.00

     MDB     stress (kbar)      0.00      0.00      0.00
                                0.00      0.00      0.00
                                0.00      0.00      0.00

     3D-RISM stress (kbar)      0.00      0.00      0.00
                                0.00      0.00      0.00
                                0.00      0.00      0.00

     Message from routine punch:
     Nothing written, as per user request (disk_io='none')
 
     init_run     :      0.55s CPU      0.78s WALL (       1 calls)
     electrons    :     20.52s CPU     20.95s WALL (       1 calls)
     forces       :      0.07s CPU      0.08s WALL (       1 calls)
     stress       :      0.16s CPU      0.16s WALL (       1 calls)

     Called by init_run:
     wfcinit      :      0.17s CPU      0.28s WALL (       1 calls)
     wfcinit:atom :      0.02s CPU      0.03s WALL (      32 calls)
     wfcinit:wfcr :      0.12s CPU      0.20s WALL (      32 calls)
     potinit      :      0.10s CPU      0.13s WALL (       1 calls)
     hinit0       :      0.20s CPU      0.23s WALL (       1 calls)

     Called by electrons:
     c_bands      :     14.75s CPU     15.05s WALL (      36 calls)
     sum_band     :      2.40s CPU      2.43s WALL (      36 calls)
     v_of_rho     :      0.14s CPU      0.15s WALL (      37 calls)
     v_h          :      0.05s CPU      0.06s WALL (      37 calls)
     v_xc         :      0.09s CPU      0.10s WALL (      39 calls)
     newd         :      0.33s CPU      0.36s WALL (      37 calls)
     PAW_pot      :      2.61s CPU      2.68s WALL (      37 calls)
     mix_rho      :      0.23s CPU      0.25s WALL (      36 calls)

     Called by c_bands:
     init_us_2    :      0.76s CPU      0.77s WALL (    2400 calls)
     cegterg      :     13.16s CPU     13.43s WALL (    1152 calls)

     Called by sum_band:
     sum_band:wei :      0.00s CPU      0.00s WALL (      36 calls)
     sum_band:loo :      1.84s CPU      1.86s WALL (      36 calls)
     sum_band:buf :      0.29s CPU      0.30s WALL (    1152 calls)
     sum_band:ini :      0.36s CPU      0.37s WALL (    1152 calls)
     sum_band:cal :      0.02s CPU      0.02s WALL (    1152 calls)
     sum_band:bec :      0.42s CPU      0.43s WALL (    1152 calls)
     addusdens    :      0.37s CPU      0.38s WALL (      36 calls)
                                        0.38s GPU  (      36 calls)
     addusd:skk   :      0.01s CPU      0.01s WALL (     108 calls)
                                        0.01s GPU  (     108 calls)

     Called by *egterg:
     cdiaghg      :      5.73s CPU      5.88s WALL (    5050 calls)
                                        5.83s GPU  (    5050 calls)
     cegterg:over :      0.36s CPU      0.36s WALL (    3898 calls)
     cegterg:upda :      1.15s CPU      1.16s WALL (    3898 calls)
     cegterg:last :      0.15s CPU      0.15s WALL (    2696 calls)
     h_psi        :      3.85s CPU      4.09s WALL (    5082 calls)
     s_psi        :      1.28s CPU      1.31s WALL (    5082 calls)
     g_psi        :      0.08s CPU      0.08s WALL (    3898 calls)

     Called by h_psi:
     h_psi:calbec :      0.09s CPU      0.12s WALL (    5082 calls)
     vloc_psi     :      2.54s CPU      2.78s WALL (    5082 calls)
                                        2.73s GPU  (    5082 calls)
     add_vuspsi   :      1.08s CPU      1.10s WALL (    5082 calls)

     General routines
     calbec       :      0.10s CPU      0.14s WALL (    6778 calls)
     fft          :      0.05s CPU      0.09s WALL (     504 calls)
                                        0.04s GPU  (     467 calls)
     ffts         :      0.02s CPU      0.02s WALL (      73 calls)
                                        0.00s GPU  (      36 calls)
     fftw         :      0.18s CPU      1.73s WALL (   24832 calls)
                                        1.49s GPU  (   24832 calls)
     interpolate  :      0.09s CPU      0.10s WALL (      37 calls)
 
     Parallel routines

     PAW routines
     PAW_pot      :      2.61s CPU      2.68s WALL (      37 calls)
     PAW_symme    :      0.00s CPU      0.00s WALL (      73 calls)
 
     PWSCF        :     21.62s CPU     22.33s WALL

 
   This run was terminated on:  17: 6: 0  29Nov2025            

=------------------------------------------------------------------------------=
   JOB DONE.
=------------------------------------------------------------------------------=
