
     Program PWSCF v.7.5 starts on 29Nov2025 at 17: 5:39 

     This program is part of the open-source Quantum ESPRESSO suite
     for quantum simulation of materials; please cite
         "P. Giannozzi et al., J. Phys.:Condens. Matter 21 395502 (2009);
         "P. Giannozzi et al., J. Phys.:Condens. Matter 29 465901 (2017);
         "P. Giannozzi et al., J. Chem. Phys. 152 154105 (2020);
          URL http://www.quantum-espresso.org", 
     in publications or presentations arising from this work. More details at
     http://www.quantum-espresso.org/quote

     Parallel version (MPI & OpenMP), running on       1 processor cores
     Number of MPI processes:                 1
     Threads/MPI process:                     1

     MPI processes distributed on     1 nodes
     1672364 MiB available memory on the printing compute node when the environment starts
 
     Reading input from espresso.pwi
Warning: card &CELL ignored
Warning: card &FCP ignored
Warning: card &RISM ignored

     Current dimensions of program PWSCF are:
     Max number of different atomic species (ntypx) = 10
     Max number of k-points (npk) =  40000
     Max angular momentum in pseudopotentials (lmaxx) =  4
     file O.pbesol-n-kjpaw_psl.0.1.UPF: wavefunction(s)  2P renormalized
     file Nb.pbesol-spn-kjpaw_psl.0.3.0.UPF: wavefunction(s)  4S 4P renormalized
     Message from routine setup:
     using ibrav=0 with symmetry is DISCOURAGED, use correct ibrav instead
 
     Subspace diagonalization in iterative solution of the eigenvalue problem:
     a serial algorithm will be used

 
     G-vector sticks info
     --------------------
     sticks:   dense  smooth     PW     G-vecs:    dense   smooth      PW
     Sum        2791    1683    485                94771    44029    6959
 
     Using Slab Decomposition
 


     bravais-lattice index     =            0
     lattice parameter (alat)  =      10.2752  a.u.
     unit-cell volume          =     701.4418 (a.u.)^3
     number of atoms/cell      =           10
     number of atomic types    =            3
     number of electrons       =        68.00
     number of Kohn-Sham states=           34
     kinetic-energy cutoff     =      60.0000  Ry
     charge density cutoff     =     400.0000  Ry
     scf convergence threshold =      1.0E-12
     mixing beta               =       0.7000
     number of iterations used =            8  plain     mixing
     Exchange-correlation= SLA  PW   PSX  PSC
                           (   1   4  10   8   0   0   0)

     GPU acceleration is ACTIVE.  1 visible GPUs per MPI rank


     GPU used by master process:

        Device Number: 0
        Device name: NVIDIA B200
        Compute capability : 100
        Ratio of single to double precision performance  : 16
        Memory Clock Rate (KHz): 3996000
        Memory Bus Width (bits): 7680
        Peak Memory Bandwidth (GB/s): ******

     celldm(1)=  10.275248  celldm(2)=   0.000000  celldm(3)=   0.000000
     celldm(4)=   0.000000  celldm(5)=   0.000000  celldm(6)=   0.000000

     crystal axes: (cart. coord. in units of alat)
               a(1) = (   0.471777   0.272381   0.838591 )  
               a(2) = (  -0.471777   0.272381   0.838591 )  
               a(3) = (   0.000000  -0.544761   0.838591 )  

     reciprocal axes: (cart. coord. in units 2 pi/alat)
               b(1) = (  1.059822  0.611889  0.397492 )  
               b(2) = ( -1.059822  0.611889  0.397492 )  
               b(3) = (  0.000000 -1.223778  0.397492 )  


     PseudoPot. # 1 for Li read from file:
     /home/qhossain/SSSP_1.3.0_PBEsol_efficiency/li_pbesol_v1.4.uspp.F.UPF
     MD5 check sum: aa28d9aeea6a965f2dc95ee9517b3536
     Pseudo is Ultrasoft, Zval =  3.0
     Generated by new atomic code, or converted to UPF format
     Using radial grid of  751 points,  5 beta functions with: 
                l(1) =   0
                l(2) =   0
                l(3) =   0
                l(4) =   1
                l(5) =   1
     Q(r) pseudized with 10 coefficients,  rinner =    1.150   1.150   1.150


     PseudoPot. # 2 for O  read from file:
     /home/qhossain/SSSP_1.3.0_PBEsol_efficiency/O.pbesol-n-kjpaw_psl.0.1.UPF
     MD5 check sum: 81d73d1479e654e5638b0319f0d6c2c7
     Pseudo is Projector augmented-wave + core cor, Zval =  6.0
     Generated using "atomic" code by A. Dal Corso  v.6.0 svn rev. 13079
     Shape of augmentation charge: BESSEL
     Using radial grid of 1095 points,  4 beta functions with: 
                l(1) =   0
                l(2) =   0
                l(3) =   1
                l(4) =   1
     Q(r) pseudized with 0 coefficients 


     PseudoPot. # 3 for Nb read from file:
     /home/qhossain/SSSP_1.3.0_PBEsol_efficiency/Nb.pbesol-spn-kjpaw_psl.0.3.0.UPF
     MD5 check sum: 3501bca1474143575298708b2d32ca28
     Pseudo is Projector augmented-wave + core cor, Zval = 13.0
     Generated using "atomic" code by A. Dal Corso  v.6.0 svn rev. 13079
     Shape of augmentation charge: PSQ
     Using radial grid of 1227 points,  6 beta functions with: 
                l(1) =   0
                l(2) =   0
                l(3) =   1
                l(4) =   1
                l(5) =   2
                l(6) =   2
     Q(r) pseudized with 0 coefficients 


     atomic species   valence    mass     pseudopotential
     Li                3.00     6.94000     Li( 1.00)
     O                 6.00    15.99900     O ( 1.00)
     Nb               13.00    92.90637     Nb( 1.00)

      6 Sym. Ops. (no inversion) found ( 3 have fractional translation)


                                    s                        frac. trans.

      isym =  1     identity                                     

 cryst.   s( 1) = (     1          0          0      )
                  (     0          1          0      )
                  (     0          0          1      )

 cart.    s( 1) = (  1.0000000 -0.0000000 -0.0000000 )
                  (  0.0000000  1.0000000 -0.0000000 )
                  (  0.0000000 -0.0000000  1.0000000 )


      isym =  2     120 deg rotation - cryst. axis [0,0,1]       

 cryst.   s( 2) = (     0          1          0      )
                  (     0          0          1      )
                  (     1          0          0      )

 cart.    s( 2) = ( -0.5000000 -0.8660254 -0.0000000 )
                  (  0.8660254 -0.5000000 -0.0000000 )
                  (  0.0000000  0.0000000  1.0000000 )


      isym =  3     120 deg rotation - cryst. axis [0,0,-1]      

 cryst.   s( 3) = (     0          0          1      )
                  (     1          0          0      )
                  (     0          1          0      )

 cart.    s( 3) = ( -0.5000000  0.8660254  0.0000000 )
                  ( -0.8660254 -0.5000000 -0.0000000 )
                  ( -0.0000000 -0.0000000  1.0000000 )


      isym =  4     inv. 180 deg rotation - cart. axis [1,0,0]   

 cryst.   s( 4) = (     0          1          0      )    f =( -0.5000000 )
                  (     1          0          0      )       ( -0.5000000 )
                  (     0          0          1      )       ( -0.5000000 )

 cart.    s( 4) = ( -1.0000000 -0.0000000 -0.0000000 )    f =( -0.0000000 )
                  ( -0.0000000  1.0000000 -0.0000000 )       (  0.0000000 )
                  ( -0.0000000 -0.0000000  1.0000000 )       ( -1.2578867 )


      isym =  5     inv. 180 deg rotation - cryst. axis [0,1,0]  

 cryst.   s( 5) = (     1          0          0      )    f =( -0.5000000 )
                  (     0          0          1      )       ( -0.5000000 )
                  (     0          1          0      )       ( -0.5000000 )

 cart.    s( 5) = (  0.5000000  0.8660254  0.0000000 )    f =(  0.0000000 )
                  (  0.8660254 -0.5000000 -0.0000000 )       ( -0.0000000 )
                  (  0.0000000 -0.0000000  1.0000000 )       ( -1.2578867 )


      isym =  6     inv. 180 deg rotation - cryst. axis [1,1,0]  

 cryst.   s( 6) = (     0          0          1      )    f =( -0.5000000 )
                  (     0          1          0      )       ( -0.5000000 )
                  (     1          0          0      )       ( -0.5000000 )

 cart.    s( 6) = (  0.5000000 -0.8660254 -0.0000000 )    f =( -0.0000000 )
                  ( -0.8660254 -0.5000000 -0.0000000 )       ( -0.0000000 )
                  ( -0.0000000  0.0000000  1.0000000 )       ( -1.2578867 )


   Cartesian axes

     site n.     atom                  positions (alat units)
         1        Li     tau(   1) = (   0.0000000  -0.0000000   1.9709298  )
         2        Li     tau(   2) = (   0.0000000  -0.0000000   0.7130430  )
         3        O      tau(   3) = (  -0.3024002  -0.0385677   1.4241895  )
         4        O      tau(   4) = (   0.1846007  -0.2426024   1.4241895  )
         5        O      tau(   5) = (   0.1177995   0.2811701   1.4241895  )
         6        O      tau(   6) = (   0.2871764   0.0297783   1.0048939  )
         7        O      tau(   7) = (  -0.1693770   0.2338129   1.0048939  )
         8        O      tau(   8) = (  -0.1177995  -0.2635912   1.0048939  )
         9        Nb     tau(   9) = (  -0.0000000  -0.0000000   1.2605940  )
        10        Nb     tau(  10) = (   0.0000000  -0.0000000   0.0027073  )

   Crystallographic axes

     site n.     atom                  positions (cryst. coord.)
         1        Li     tau(   1) = (  0.7834289  0.7834289  0.7834289  )
         2        Li     tau(   2) = (  0.2834289  0.2834289  0.2834289  )
         3        O      tau(   3) = (  0.2220144  0.8629954  0.6133023  )
         4        O      tau(   4) = (  0.6133023  0.2220144  0.8629954  )
         5        O      tau(   5) = (  0.8629954  0.6133023  0.2220144  )
         6        O      tau(   6) = (  0.7220144  0.1133023  0.3629954  )
         7        O      tau(   7) = (  0.3629954  0.7220144  0.1133023  )
         8        O      tau(   8) = (  0.1133023  0.3629954  0.7220144  )
         9        Nb     tau(   9) = (  0.5010761  0.5010761  0.5010761  )
        10        Nb     tau(  10) = (  0.0010761  0.0010761  0.0010761  )

     number of k points=    32
                       cart. coord. in units 2pi/alat
        k(    1) = (   0.0000000   0.0000000   0.0000000), wk =   0.0092593
        k(    2) = (   0.0000000  -0.2039629   0.0662487), wk =   0.0555556
        k(    3) = (   0.0000000  -0.4079259   0.1324974), wk =   0.0555556
        k(    4) = (  -0.0000000   0.6118888  -0.1987460), wk =   0.0277778
        k(    5) = (  -0.1766371  -0.1019815   0.1324974), wk =   0.0555556
        k(    6) = (  -0.1766371  -0.3059444   0.1987460), wk =   0.1111111
        k(    7) = (  -0.1766371   0.7138703  -0.1324974), wk =   0.1111111
        k(    8) = (  -0.1766371   0.5099073  -0.0662487), wk =   0.1111111
        k(    9) = (  -0.1766371   0.3059444   0.0000000), wk =   0.0555556
        k(   10) = (  -0.3532742  -0.2039629   0.2649947), wk =   0.0555556
        k(   11) = (  -0.3532742   0.8158517  -0.0662487), wk =   0.1111111
        k(   12) = (  -0.3532742   0.6118888   0.0000000), wk =   0.0555556
        k(   13) = (   0.5299112   0.3059444  -0.3974921), wk =   0.0277778
        k(   14) = (  -0.0000000   0.0000000   0.1987460), wk =   0.0185185
        k(   15) = (  -0.0000000  -0.2039629   0.2649947), wk =   0.0555556
        k(   16) = (  -0.0000000   0.8158517  -0.0662487), wk =   0.0555556
        k(   17) = (  -0.0000000   0.6118888   0.0000000), wk =   0.0555556
        k(   18) = (  -0.0000000   0.4079259   0.0662487), wk =   0.0555556
        k(   19) = (  -0.1766371  -0.1019815   0.3312434), wk =   0.0555556
        k(   20) = (  -0.1766371   0.9178332   0.0000000), wk =   0.1111111
        k(   21) = (  -0.1766371   0.7138703   0.0662487), wk =   0.1111111
        k(   22) = (  -0.1766371   0.5099073   0.1324974), wk =   0.1111111
        k(   23) = (   0.7065483   0.4079259  -0.3312434), wk =   0.0555556
        k(   24) = (   0.7065483   0.2039629  -0.2649947), wk =   0.1111111
        k(   25) = (   0.7065483  -0.0000000  -0.1987460), wk =   0.0555556
        k(   26) = (   0.5299112   0.3059444  -0.1987460), wk =   0.0555556
        k(   27) = (  -0.0000000   0.0000000   0.3974921), wk =   0.0185185
        k(   28) = (  -0.0000000   1.0198146   0.0662487), wk =   0.0555556
        k(   29) = (  -0.0000000   0.8158517   0.1324974), wk =   0.0555556
        k(   30) = (   0.8831854   0.5099073  -0.2649947), wk =   0.0555556
        k(   31) = (   0.8831854   0.3059444  -0.1987460), wk =   0.0555556
        k(   32) = (  -0.0000000   0.0000000  -0.5962381), wk =   0.0092593

                       cryst. coord.
        k(    1) = (   0.0000000   0.0000000   0.0000000), wk =   0.0092593
        k(    2) = (   0.0000000   0.0000000   0.1666667), wk =   0.0555556
        k(    3) = (   0.0000000   0.0000000   0.3333333), wk =   0.0555556
        k(    4) = (  -0.0000000  -0.0000000  -0.5000000), wk =   0.0277778
        k(    5) = (   0.0000000   0.1666667   0.1666667), wk =   0.0555556
        k(    6) = (   0.0000000   0.1666667   0.3333333), wk =   0.1111111
        k(    7) = (  -0.0000000   0.1666667  -0.5000000), wk =   0.1111111
        k(    8) = (  -0.0000000   0.1666667  -0.3333333), wk =   0.1111111
        k(    9) = (  -0.0000000   0.1666667  -0.1666667), wk =   0.0555556
        k(   10) = (   0.0000000   0.3333333   0.3333333), wk =   0.0555556
        k(   11) = (  -0.0000000   0.3333333  -0.5000000), wk =   0.1111111
        k(   12) = (  -0.0000000   0.3333333  -0.3333333), wk =   0.0555556
        k(   13) = (  -0.0000000  -0.5000000  -0.5000000), wk =   0.0277778
        k(   14) = (   0.1666667   0.1666667   0.1666667), wk =   0.0185185
        k(   15) = (   0.1666667   0.1666667   0.3333333), wk =   0.0555556
        k(   16) = (   0.1666667   0.1666667  -0.5000000), wk =   0.0555556
        k(   17) = (   0.1666667   0.1666667  -0.3333333), wk =   0.0555556
        k(   18) = (   0.1666667   0.1666667  -0.1666667), wk =   0.0555556
        k(   19) = (   0.1666667   0.3333333   0.3333333), wk =   0.0555556
        k(   20) = (   0.1666667   0.3333333  -0.5000000), wk =   0.1111111
        k(   21) = (   0.1666667   0.3333333  -0.3333333), wk =   0.1111111
        k(   22) = (   0.1666667   0.3333333  -0.1666667), wk =   0.1111111
        k(   23) = (   0.1666667  -0.5000000  -0.5000000), wk =   0.0555556
        k(   24) = (   0.1666667  -0.5000000  -0.3333333), wk =   0.1111111
        k(   25) = (   0.1666667  -0.5000000  -0.1666667), wk =   0.0555556
        k(   26) = (   0.1666667  -0.3333333  -0.3333333), wk =   0.0555556
        k(   27) = (   0.3333333   0.3333333   0.3333333), wk =   0.0185185
        k(   28) = (   0.3333333   0.3333333  -0.5000000), wk =   0.0555556
        k(   29) = (   0.3333333   0.3333333  -0.3333333), wk =   0.0555556
        k(   30) = (   0.3333333  -0.5000000  -0.5000000), wk =   0.0555556
        k(   31) = (   0.3333333  -0.5000000  -0.3333333), wk =   0.0555556
        k(   32) = (  -0.5000000  -0.5000000  -0.5000000), wk =   0.0092593

     Dense  grid:    94771 G-vectors     FFT dimensions: (  72,  72,  72)

     Smooth grid:    44029 G-vectors     FFT dimensions: (  54,  54,  54)

     Dynamical RAM for                 wfc:       2.86 MB

     Dynamical RAM for     wfc (w. buffer):      94.25 MB

     Dynamical RAM for           str. fact:       4.34 MB

     Dynamical RAM for           local pot:       0.00 MB

     Dynamical RAM for          nlocal pot:       8.57 MB

     Dynamical RAM for                qrad:       4.82 MB

     Dynamical RAM for          rho,v,vnew:      12.88 MB

     Dynamical RAM for               rhoin:       4.29 MB

     Dynamical RAM for            rho*nmix:      23.14 MB

     Dynamical RAM for           G-vectors:       5.76 MB

     Dynamical RAM for          h,s,v(r/c):       0.21 MB

     Dynamical RAM for          <psi|beta>:       0.05 MB

     Dynamical RAM for                 psi:       5.71 MB

     Dynamical RAM for                hpsi:       5.71 MB

     Dynamical RAM for                spsi:       5.71 MB

     Dynamical RAM for      wfcinit/wfcrot:       5.74 MB

     Dynamical RAM for           addusdens:     277.65 MB

     Dynamical RAM for          addusforce:     292.86 MB

     Dynamical RAM for         addusstress:     290.66 MB

     Estimated static dynamical RAM per process >     154.93 MB

     Estimated max dynamical RAM per process >     470.92 MB

     Check: negative core charge=   -0.000005

     Initial potential from superposition of free atoms

     starting charge      67.0945, renormalised to      68.0000
     Starting wfcs are   54 randomized atomic wfcs
     Checking if some PAW data can be deallocated... 

     total cpu time spent up to now is        1.1 secs

     per-process dynamical memory:   554.5 Mb

     Self-consistent Calculation
[tb_dev] Currently allocated     1.86E+00 Mbytes, locked:    0 /   3
[tb_pin] Currently allocated     0.00E+00 Mbytes, locked:    0 /   0

     iteration #  1     ecut=    60.00 Ry     beta= 0.70
     Davidson diagonalization with overlap

---- Real-time Memory Report at c_bands before calling an iterative solver
           983 MiB given to the printing process from OS
           541 MiB allocation reported by mallinfo(arena+hblkhd)
       1671945 MiB available memory on the node where the printing process lives
     GPU memory used/free/total (MiB): 65368 / 117274 / 182642
------------------
     ethr =  1.00E-02,  avg # of iterations =  1.2

     total cpu time spent up to now is        1.6 secs

     total energy              =    -934.51445379 Ry
     estimated scf accuracy    <       4.34361898 Ry
[tb_dev] Currently allocated     0.00E+00 Mbytes, locked:    0 /   0
[tb_pin] Currently allocated     0.00E+00 Mbytes, locked:    0 /   0

     iteration #  2     ecut=    60.00 Ry     beta= 0.70
     Davidson diagonalization with overlap

---- Real-time Memory Report at c_bands before calling an iterative solver
          1033 MiB given to the printing process from OS
           616 MiB allocation reported by mallinfo(arena+hblkhd)
       1671910 MiB available memory on the node where the printing process lives
     GPU memory used/free/total (MiB): 65368 / 117274 / 182642
------------------
     ethr =  6.39E-03,  avg # of iterations =  8.3

     total cpu time spent up to now is        2.7 secs

     total energy              =    -934.14007471 Ry
     estimated scf accuracy    <      14.16534938 Ry
[tb_dev] Currently allocated     0.00E+00 Mbytes, locked:    0 /   0
[tb_pin] Currently allocated     0.00E+00 Mbytes, locked:    0 /   0

     iteration #  3     ecut=    60.00 Ry     beta= 0.70
     Davidson diagonalization with overlap

---- Real-time Memory Report at c_bands before calling an iterative solver
          1039 MiB given to the printing process from OS
           620 MiB allocation reported by mallinfo(arena+hblkhd)
       1671923 MiB available memory on the node where the printing process lives
     GPU memory used/free/total (MiB): 65370 / 117272 / 182642
------------------
     ethr =  6.39E-03,  avg # of iterations =  5.6

     total cpu time spent up to now is        3.5 secs

     total energy              =    -936.68226887 Ry
     estimated scf accuracy    <       0.05726688 Ry
[tb_dev] Currently allocated     0.00E+00 Mbytes, locked:    0 /   0
[tb_pin] Currently allocated     0.00E+00 Mbytes, locked:    0 /   0

     iteration #  4     ecut=    60.00 Ry     beta= 0.70
     Davidson diagonalization with overlap

---- Real-time Memory Report at c_bands before calling an iterative solver
          1042 MiB given to the printing process from OS
           621 MiB allocation reported by mallinfo(arena+hblkhd)
       1671921 MiB available memory on the node where the printing process lives
     GPU memory used/free/total (MiB): 65370 / 117272 / 182642
------------------
     ethr =  8.42E-05,  avg # of iterations =  9.1

     total cpu time spent up to now is        4.6 secs

     total energy              =    -936.70864337 Ry
     estimated scf accuracy    <       0.29931065 Ry
[tb_dev] Currently allocated     0.00E+00 Mbytes, locked:    0 /   0
[tb_pin] Currently allocated     0.00E+00 Mbytes, locked:    0 /   0

     iteration #  5     ecut=    60.00 Ry     beta= 0.70
     Davidson diagonalization with overlap

---- Real-time Memory Report at c_bands before calling an iterative solver
          1044 MiB given to the printing process from OS
           623 MiB allocation reported by mallinfo(arena+hblkhd)
       1671956 MiB available memory on the node where the printing process lives
     GPU memory used/free/total (MiB): 65370 / 117272 / 182642
------------------
     ethr =  8.42E-05,  avg # of iterations =  7.5

     total cpu time spent up to now is        5.6 secs

     total energy              =    -936.81521178 Ry
     estimated scf accuracy    <       0.30065489 Ry
[tb_dev] Currently allocated     0.00E+00 Mbytes, locked:    0 /   0
[tb_pin] Currently allocated     0.00E+00 Mbytes, locked:    0 /   0

     iteration #  6     ecut=    60.00 Ry     beta= 0.70
     Davidson diagonalization with overlap

---- Real-time Memory Report at c_bands before calling an iterative solver
          1046 MiB given to the printing process from OS
           625 MiB allocation reported by mallinfo(arena+hblkhd)
       1671969 MiB available memory on the node where the printing process lives
     GPU memory used/free/total (MiB): 65370 / 117272 / 182642
------------------
     ethr =  8.42E-05,  avg # of iterations =  4.8

     total cpu time spent up to now is        6.3 secs

     total energy              =    -936.81276922 Ry
     estimated scf accuracy    <       0.05753589 Ry
[tb_dev] Currently allocated     0.00E+00 Mbytes, locked:    0 /   0
[tb_pin] Currently allocated     0.00E+00 Mbytes, locked:    0 /   0

     iteration #  7     ecut=    60.00 Ry     beta= 0.70
     Davidson diagonalization with overlap

---- Real-time Memory Report at c_bands before calling an iterative solver
          1050 MiB given to the printing process from OS
           625 MiB allocation reported by mallinfo(arena+hblkhd)
       1671971 MiB available memory on the node where the printing process lives
     GPU memory used/free/total (MiB): 65370 / 117272 / 182642
------------------
     ethr =  8.42E-05,  avg # of iterations =  4.9

     total cpu time spent up to now is        7.0 secs

     total energy              =    -936.83960135 Ry
     estimated scf accuracy    <       0.00774423 Ry
[tb_dev] Currently allocated     0.00E+00 Mbytes, locked:    0 /   0
[tb_pin] Currently allocated     0.00E+00 Mbytes, locked:    0 /   0

     iteration #  8     ecut=    60.00 Ry     beta= 0.70
     Davidson diagonalization with overlap

---- Real-time Memory Report at c_bands before calling an iterative solver
          1051 MiB given to the printing process from OS
           617 MiB allocation reported by mallinfo(arena+hblkhd)
       1672009 MiB available memory on the node where the printing process lives
     GPU memory used/free/total (MiB): 65370 / 117272 / 182642
------------------
     ethr =  1.14E-05,  avg # of iterations =  2.3

     total cpu time spent up to now is        7.5 secs

     total energy              =    -936.83792376 Ry
     estimated scf accuracy    <       0.00581129 Ry
[tb_dev] Currently allocated     0.00E+00 Mbytes, locked:    0 /   0
[tb_pin] Currently allocated     0.00E+00 Mbytes, locked:    0 /   0

     iteration #  9     ecut=    60.00 Ry     beta= 0.70
     Davidson diagonalization with overlap

---- Real-time Memory Report at c_bands before calling an iterative solver
          1053 MiB given to the printing process from OS
           629 MiB allocation reported by mallinfo(arena+hblkhd)
       1671964 MiB available memory on the node where the printing process lives
     GPU memory used/free/total (MiB): 65370 / 117272 / 182642
------------------
     ethr =  8.55E-06,  avg # of iterations =  2.1

     total cpu time spent up to now is        8.0 secs

     total energy              =    -936.83792198 Ry
     estimated scf accuracy    <       0.00132791 Ry
[tb_dev] Currently allocated     0.00E+00 Mbytes, locked:    0 /   0
[tb_pin] Currently allocated     0.00E+00 Mbytes, locked:    0 /   0

     iteration # 10     ecut=    60.00 Ry     beta= 0.70
     Davidson diagonalization with overlap

---- Real-time Memory Report at c_bands before calling an iterative solver
          1056 MiB given to the printing process from OS
           632 MiB allocation reported by mallinfo(arena+hblkhd)
       1671786 MiB available memory on the node where the printing process lives
     GPU memory used/free/total (MiB): 65370 / 117272 / 182642
------------------
     ethr =  1.95E-06,  avg # of iterations =  4.9

     total cpu time spent up to now is        8.7 secs

     total energy              =    -936.83841964 Ry
     estimated scf accuracy    <       0.00001040 Ry
[tb_dev] Currently allocated     0.00E+00 Mbytes, locked:    0 /   0
[tb_pin] Currently allocated     0.00E+00 Mbytes, locked:    0 /   0

     iteration # 11     ecut=    60.00 Ry     beta= 0.70
     Davidson diagonalization with overlap

---- Real-time Memory Report at c_bands before calling an iterative solver
          1056 MiB given to the printing process from OS
           632 MiB allocation reported by mallinfo(arena+hblkhd)
       1671794 MiB available memory on the node where the printing process lives
     GPU memory used/free/total (MiB): 65370 / 117272 / 182642
------------------
     ethr =  1.53E-08,  avg # of iterations =  7.4

     total cpu time spent up to now is        9.7 secs

     total energy              =    -936.83844039 Ry
     estimated scf accuracy    <       0.00002918 Ry
[tb_dev] Currently allocated     0.00E+00 Mbytes, locked:    0 /   0
[tb_pin] Currently allocated     0.00E+00 Mbytes, locked:    0 /   0

     iteration # 12     ecut=    60.00 Ry     beta= 0.70
     Davidson diagonalization with overlap

---- Real-time Memory Report at c_bands before calling an iterative solver
          1056 MiB given to the printing process from OS
           632 MiB allocation reported by mallinfo(arena+hblkhd)
       1672099 MiB available memory on the node where the printing process lives
     GPU memory used/free/total (MiB): 65370 / 117272 / 182642
------------------
     ethr =  1.53E-08,  avg # of iterations =  2.4

     total cpu time spent up to now is       10.2 secs

     total energy              =    -936.83843644 Ry
     estimated scf accuracy    <       0.00001408 Ry
[tb_dev] Currently allocated     0.00E+00 Mbytes, locked:    0 /   0
[tb_pin] Currently allocated     0.00E+00 Mbytes, locked:    0 /   0

     iteration # 13     ecut=    60.00 Ry     beta= 0.70
     Davidson diagonalization with overlap

---- Real-time Memory Report at c_bands before calling an iterative solver
          1056 MiB given to the printing process from OS
           632 MiB allocation reported by mallinfo(arena+hblkhd)
       1673335 MiB available memory on the node where the printing process lives
     GPU memory used/free/total (MiB): 65370 / 117272 / 182642
------------------
     ethr =  1.53E-08,  avg # of iterations =  4.7

     total cpu time spent up to now is       10.8 secs

     total energy              =    -936.83843958 Ry
     estimated scf accuracy    <       0.00000013 Ry
[tb_dev] Currently allocated     0.00E+00 Mbytes, locked:    0 /   0
[tb_pin] Currently allocated     0.00E+00 Mbytes, locked:    0 /   0

     iteration # 14     ecut=    60.00 Ry     beta= 0.70
     Davidson diagonalization with overlap

---- Real-time Memory Report at c_bands before calling an iterative solver
          1056 MiB given to the printing process from OS
           632 MiB allocation reported by mallinfo(arena+hblkhd)
       1674160 MiB available memory on the node where the printing process lives
     GPU memory used/free/total (MiB): 65370 / 117272 / 182642
------------------
     ethr =  1.87E-10,  avg # of iterations =  8.6

     total cpu time spent up to now is       11.9 secs

     total energy              =    -936.83843996 Ry
     estimated scf accuracy    <       0.00000037 Ry
[tb_dev] Currently allocated     0.00E+00 Mbytes, locked:    0 /   0
[tb_pin] Currently allocated     0.00E+00 Mbytes, locked:    0 /   0

     iteration # 15     ecut=    60.00 Ry     beta= 0.70
     Davidson diagonalization with overlap

---- Real-time Memory Report at c_bands before calling an iterative solver
          1056 MiB given to the printing process from OS
           632 MiB allocation reported by mallinfo(arena+hblkhd)
       1674226 MiB available memory on the node where the printing process lives
     GPU memory used/free/total (MiB): 65370 / 117272 / 182642
------------------
     ethr =  1.87E-10,  avg # of iterations =  1.0

     total cpu time spent up to now is       12.3 secs

     total energy              =    -936.83843996 Ry
     estimated scf accuracy    <       0.00000038 Ry
[tb_dev] Currently allocated     0.00E+00 Mbytes, locked:    0 /   0
[tb_pin] Currently allocated     0.00E+00 Mbytes, locked:    0 /   0

     iteration # 16     ecut=    60.00 Ry     beta= 0.70
     Davidson diagonalization with overlap

---- Real-time Memory Report at c_bands before calling an iterative solver
          1056 MiB given to the printing process from OS
           632 MiB allocation reported by mallinfo(arena+hblkhd)
       1674221 MiB available memory on the node where the printing process lives
     GPU memory used/free/total (MiB): 65370 / 117272 / 182642
------------------
     ethr =  1.87E-10,  avg # of iterations =  1.0

     total cpu time spent up to now is       12.7 secs

     total energy              =    -936.83843988 Ry
     estimated scf accuracy    <       0.00000040 Ry
[tb_dev] Currently allocated     0.00E+00 Mbytes, locked:    0 /   0
[tb_pin] Currently allocated     0.00E+00 Mbytes, locked:    0 /   0

     iteration # 17     ecut=    60.00 Ry     beta= 0.70
     Davidson diagonalization with overlap

---- Real-time Memory Report at c_bands before calling an iterative solver
          1056 MiB given to the printing process from OS
           632 MiB allocation reported by mallinfo(arena+hblkhd)
       1674234 MiB available memory on the node where the printing process lives
     GPU memory used/free/total (MiB): 65370 / 117272 / 182642
------------------
     ethr =  1.87E-10,  avg # of iterations =  2.0

     total cpu time spent up to now is       13.2 secs

     total energy              =    -936.83843983 Ry
     estimated scf accuracy    <       0.00000017 Ry
[tb_dev] Currently allocated     0.00E+00 Mbytes, locked:    0 /   0
[tb_pin] Currently allocated     0.00E+00 Mbytes, locked:    0 /   0

     iteration # 18     ecut=    60.00 Ry     beta= 0.70
     Davidson diagonalization with overlap

---- Real-time Memory Report at c_bands before calling an iterative solver
          1056 MiB given to the printing process from OS
           632 MiB allocation reported by mallinfo(arena+hblkhd)
       1674240 MiB available memory on the node where the printing process lives
     GPU memory used/free/total (MiB): 65370 / 117272 / 182642
------------------
     ethr =  1.87E-10,  avg # of iterations =  4.8

     total cpu time spent up to now is       13.9 secs

     total energy              =    -936.83843986 Ry
     estimated scf accuracy    <          3.5E-09 Ry
[tb_dev] Currently allocated     0.00E+00 Mbytes, locked:    0 /   0
[tb_pin] Currently allocated     0.00E+00 Mbytes, locked:    0 /   0

     iteration # 19     ecut=    60.00 Ry     beta= 0.70
     Davidson diagonalization with overlap

---- Real-time Memory Report at c_bands before calling an iterative solver
          1056 MiB given to the printing process from OS
           632 MiB allocation reported by mallinfo(arena+hblkhd)
       1674265 MiB available memory on the node where the printing process lives
     GPU memory used/free/total (MiB): 65370 / 117272 / 182642
------------------
     ethr =  5.21E-12,  avg # of iterations =  5.1

     total cpu time spent up to now is       14.6 secs

     total energy              =    -936.83843987 Ry
     estimated scf accuracy    <          2.8E-09 Ry
[tb_dev] Currently allocated     0.00E+00 Mbytes, locked:    0 /   0
[tb_pin] Currently allocated     0.00E+00 Mbytes, locked:    0 /   0

     iteration # 20     ecut=    60.00 Ry     beta= 0.70
     Davidson diagonalization with overlap

---- Real-time Memory Report at c_bands before calling an iterative solver
          1056 MiB given to the printing process from OS
           632 MiB allocation reported by mallinfo(arena+hblkhd)
       1674280 MiB available memory on the node where the printing process lives
     GPU memory used/free/total (MiB): 65370 / 117272 / 182642
------------------
     ethr =  4.05E-12,  avg # of iterations =  2.5

     total cpu time spent up to now is       15.2 secs

     total energy              =    -936.83843987 Ry
     estimated scf accuracy    <          6.9E-10 Ry
[tb_dev] Currently allocated     0.00E+00 Mbytes, locked:    0 /   0
[tb_pin] Currently allocated     0.00E+00 Mbytes, locked:    0 /   0

     iteration # 21     ecut=    60.00 Ry     beta= 0.70
     Davidson diagonalization with overlap

---- Real-time Memory Report at c_bands before calling an iterative solver
          1056 MiB given to the printing process from OS
           632 MiB allocation reported by mallinfo(arena+hblkhd)
       1674276 MiB available memory on the node where the printing process lives
     GPU memory used/free/total (MiB): 65370 / 117272 / 182642
------------------
     ethr =  1.01E-12,  avg # of iterations =  6.3

     total cpu time spent up to now is       16.0 secs

     total energy              =    -936.83843987 Ry
     estimated scf accuracy    <          1.1E-09 Ry
[tb_dev] Currently allocated     0.00E+00 Mbytes, locked:    0 /   0
[tb_pin] Currently allocated     0.00E+00 Mbytes, locked:    0 /   0

     iteration # 22     ecut=    60.00 Ry     beta= 0.70
     Davidson diagonalization with overlap

---- Real-time Memory Report at c_bands before calling an iterative solver
          1056 MiB given to the printing process from OS
           632 MiB allocation reported by mallinfo(arena+hblkhd)
       1674261 MiB available memory on the node where the printing process lives
     GPU memory used/free/total (MiB): 65370 / 117272 / 182642
------------------
     ethr =  1.01E-12,  avg # of iterations =  1.0

     total cpu time spent up to now is       16.4 secs

     total energy              =    -936.83843987 Ry
     estimated scf accuracy    <          8.3E-10 Ry
[tb_dev] Currently allocated     0.00E+00 Mbytes, locked:    0 /   0
[tb_pin] Currently allocated     0.00E+00 Mbytes, locked:    0 /   0

     iteration # 23     ecut=    60.00 Ry     beta= 0.70
     Davidson diagonalization with overlap

---- Real-time Memory Report at c_bands before calling an iterative solver
          1056 MiB given to the printing process from OS
           632 MiB allocation reported by mallinfo(arena+hblkhd)
       1674269 MiB available memory on the node where the printing process lives
     GPU memory used/free/total (MiB): 65370 / 117272 / 182642
------------------
     ethr =  1.01E-12,  avg # of iterations =  2.0

     total cpu time spent up to now is       16.9 secs

     total energy              =    -936.83843987 Ry
     estimated scf accuracy    <          2.3E-10 Ry
[tb_dev] Currently allocated     0.00E+00 Mbytes, locked:    0 /   0
[tb_pin] Currently allocated     0.00E+00 Mbytes, locked:    0 /   0

     iteration # 24     ecut=    60.00 Ry     beta= 0.70
     Davidson diagonalization with overlap

---- Real-time Memory Report at c_bands before calling an iterative solver
          1056 MiB given to the printing process from OS
           632 MiB allocation reported by mallinfo(arena+hblkhd)
       1674285 MiB available memory on the node where the printing process lives
     GPU memory used/free/total (MiB): 65370 / 117272 / 182642
------------------
     ethr =  3.33E-13,  avg # of iterations =  1.2

     total cpu time spent up to now is       17.3 secs

     total energy              =    -936.83843987 Ry
     estimated scf accuracy    <          2.0E-10 Ry
[tb_dev] Currently allocated     0.00E+00 Mbytes, locked:    0 /   0
[tb_pin] Currently allocated     0.00E+00 Mbytes, locked:    0 /   0

     iteration # 25     ecut=    60.00 Ry     beta= 0.70
     Davidson diagonalization with overlap

---- Real-time Memory Report at c_bands before calling an iterative solver
          1056 MiB given to the printing process from OS
           632 MiB allocation reported by mallinfo(arena+hblkhd)
       1674270 MiB available memory on the node where the printing process lives
     GPU memory used/free/total (MiB): 65370 / 117272 / 182642
------------------
     ethr =  2.97E-13,  avg # of iterations =  4.4

     total cpu time spent up to now is       17.9 secs

     End of self-consistent calculation

          k = 0.0000 0.0000 0.0000 (  5457 PWs)   bands (ev):

   -46.5195 -46.5019 -34.3619 -34.3586 -22.9124 -22.9124 -22.8373 -22.7330
   -22.7330 -22.6301  -9.5069  -8.8299  -8.8299  -7.7890  -7.5917  -7.5917
     2.8766   2.8766   3.0617   3.1290   3.1290   4.1289   5.3513   5.3685
     5.3685   6.1661   6.6674   6.6674   6.8137   6.8137   6.8468   6.9957
     7.4508   7.4508

     occupation numbers 
     1.0000   1.0000   1.0000   1.0000   1.0000   1.0000   1.0000   1.0000
     1.0000   1.0000   1.0000   1.0000   1.0000   1.0000   1.0000   1.0000
     1.0000   1.0000   1.0000   1.0000   1.0000   1.0000   1.0000   1.0000
     1.0000   1.0000   1.0000   1.0000   1.0000   1.0000   1.0000   1.0000
     1.0000   1.0000

          k = 0.0000-0.2040 0.0662 (  5512 PWs)   bands (ev):

   -46.5183 -46.5031 -34.3617 -34.3588 -22.9026 -22.9011 -22.8232 -22.7469
   -22.7458 -22.6439  -9.3909  -8.7630  -8.7597  -7.8750  -7.7089  -7.6890
     2.8193   2.9168   3.2095   3.4113   3.4137   4.1789   5.0186   5.1044
     5.1796   6.1548   6.3974   6.6614   6.6639   6.9528   7.0084   7.0843
     7.3104   7.3800

     occupation numbers 
     1.0000   1.0000   1.0000   1.0000   1.0000   1.0000   1.0000   1.0000
     1.0000   1.0000   1.0000   1.0000   1.0000   1.0000   1.0000   1.0000
     1.0000   1.0000   1.0000   1.0000   1.0000   1.0000   1.0000   1.0000
     1.0000   1.0000   1.0000   1.0000   1.0000   1.0000   1.0000   1.0000
     1.0000   1.0000

          k = 0.0000-0.4079 0.1325 (  5520 PWs)   bands (ev):

   -46.5151 -46.5063 -34.3612 -34.3595 -22.8738 -22.8696 -22.7852 -22.7836
   -22.7798 -22.6817  -9.0708  -8.5827  -8.5655  -8.1401  -7.9836  -7.9375
     2.9861   3.1455   3.5059   3.9524   3.9886   4.2799   4.3073   4.6887
     4.9031   5.6371   5.9557   6.2710   6.8844   6.9913   7.0067   7.1375
     7.2591   7.3930

     occupation numbers 
     1.0000   1.0000   1.0000   1.0000   1.0000   1.0000   1.0000   1.0000
     1.0000   1.0000   1.0000   1.0000   1.0000   1.0000   1.0000   1.0000
     1.0000   1.0000   1.0000   1.0000   1.0000   1.0000   1.0000   1.0000
     1.0000   1.0000   1.0000   1.0000   1.0000   1.0000   1.0000   1.0000
     1.0000   1.0000

          k =-0.0000 0.6119-0.1987 (  5512 PWs)   bands (ev):

   -46.5107 -46.5107 -34.3603 -34.3603 -22.8307 -22.8307 -22.8255 -22.8255
   -22.7333 -22.7333  -8.6409  -8.6409  -8.3094  -8.3094  -8.2132  -8.2132
     3.3729   3.3729   3.6388   3.6388   4.1675   4.1675   4.6501   4.6501
     5.1168   5.1168   5.5839   5.5839   7.0474   7.0474   7.1783   7.1783
     7.2552   7.2552

     occupation numbers 
     1.0000   1.0000   1.0000   1.0000   1.0000   1.0000   1.0000   1.0000
     1.0000   1.0000   1.0000   1.0000   1.0000   1.0000   1.0000   1.0000
     1.0000   1.0000   1.0000   1.0000   1.0000   1.0000   1.0000   1.0000
     1.0000   1.0000   1.0000   1.0000   1.0000   1.0000   1.0000   1.0000
     1.0000   1.0000

          k =-0.1766-0.1020 0.1325 (  5502 PWs)   bands (ev):

   -46.5180 -46.5034 -34.3616 -34.3589 -22.9156 -22.8915 -22.8107 -22.7735
   -22.7307 -22.6418  -9.3829  -8.8083  -8.6548  -8.0022  -7.7099  -7.6324
     2.8706   2.9260   3.0949   3.4229   3.5401   4.3348   4.6192   5.2926
     5.3547   6.1543   6.3265   6.5315   6.7238   6.7683   6.9265   7.0716
     7.3425   7.3925

     occupation numbers 
     1.0000   1.0000   1.0000   1.0000   1.0000   1.0000   1.0000   1.0000
     1.0000   1.0000   1.0000   1.0000   1.0000   1.0000   1.0000   1.0000
     1.0000   1.0000   1.0000   1.0000   1.0000   1.0000   1.0000   1.0000
     1.0000   1.0000   1.0000   1.0000   1.0000   1.0000   1.0000   1.0000
     1.0000   1.0000

          k =-0.1766-0.3059 0.1987 (  5501 PWs)   bands (ev):

   -46.5158 -46.5056 -34.3613 -34.3593 -22.9076 -22.8731 -22.8198 -22.7682
   -22.7426 -22.6593  -9.1963  -8.7224  -8.4412  -8.2802  -7.8289  -7.7709
     2.8079   3.0893   3.4686   3.6821   3.8534   4.0999   4.6528   4.8706
     5.2640   5.8127   6.1762   6.4805   6.6072   6.7450   6.8822   7.1117
     7.2323   7.3867

     occupation numbers 
     1.0000   1.0000   1.0000   1.0000   1.0000   1.0000   1.0000   1.0000
     1.0000   1.0000   1.0000   1.0000   1.0000   1.0000   1.0000   1.0000
     1.0000   1.0000   1.0000   1.0000   1.0000   1.0000   1.0000   1.0000
     1.0000   1.0000   1.0000   1.0000   1.0000   1.0000   1.0000   1.0000
     1.0000   1.0000

          k =-0.1766 0.7139-0.1325 (  5505 PWs)   bands (ev):

   -46.5121 -46.5092 -34.3606 -34.3601 -22.8785 -22.8660 -22.8377 -22.7779
   -22.7194 -22.6973  -8.8637  -8.6631  -8.5213  -8.1122  -8.0981  -8.0266
     2.9980   3.2397   3.4825   3.9183   4.1412   4.2402   4.4767   4.7405
     4.9882   5.4392   5.8831   6.2079   6.6697   6.9148   6.9412   7.0481
     7.2432   7.3421

     occupation numbers 
     1.0000   1.0000   1.0000   1.0000   1.0000   1.0000   1.0000   1.0000
     1.0000   1.0000   1.0000   1.0000   1.0000   1.0000   1.0000   1.0000
     1.0000   1.0000   1.0000   1.0000   1.0000   1.0000   1.0000   1.0000
     1.0000   1.0000   1.0000   1.0000   1.0000   1.0000   1.0000   1.0000
     1.0000   1.0000

          k =-0.1766 0.5099-0.0662 (  5509 PWs)   bands (ev):

   -46.5132 -46.5081 -34.3608 -34.3598 -22.8978 -22.8339 -22.8249 -22.7925
   -22.7473 -22.6801  -8.9800  -8.5114  -8.4193  -8.3059  -8.2215  -7.8418
     2.9416   3.3743   3.5193   3.6559   3.8811   4.3184   4.5997   4.8034
     5.0923   5.5108   5.7768   6.4422   6.5741   6.7595   6.9975   7.1810
     7.2344   7.3724

     occupation numbers 
     1.0000   1.0000   1.0000   1.0000   1.0000   1.0000   1.0000   1.0000
     1.0000   1.0000   1.0000   1.0000   1.0000   1.0000   1.0000   1.0000
     1.0000   1.0000   1.0000   1.0000   1.0000   1.0000   1.0000   1.0000
     1.0000   1.0000   1.0000   1.0000   1.0000   1.0000   1.0000   1.0000
     1.0000   1.0000

          k =-0.1766 0.3059 0.0000 (  5532 PWs)   bands (ev):

   -46.5166 -46.5048 -34.3614 -34.3592 -22.9082 -22.8699 -22.7956 -22.7850
   -22.7544 -22.6565  -9.2385  -8.6996  -8.5902  -8.0611  -7.9439  -7.6974
     2.8451   3.0394   3.3626   3.4509   3.9638   4.2953   4.4382   4.7307
     5.3781   6.0115   6.2662   6.4421   6.7182   6.8358   6.9795   7.1304
     7.1921   7.4221

     occupation numbers 
     1.0000   1.0000   1.0000   1.0000   1.0000   1.0000   1.0000   1.0000
     1.0000   1.0000   1.0000   1.0000   1.0000   1.0000   1.0000   1.0000
     1.0000   1.0000   1.0000   1.0000   1.0000   1.0000   1.0000   1.0000
     1.0000   1.0000   1.0000   1.0000   1.0000   1.0000   1.0000   1.0000
     1.0000   1.0000

          k =-0.3533-0.2040 0.2650 (  5493 PWs)   bands (ev):

   -46.5151 -46.5063 -34.3612 -34.3595 -22.9220 -22.8827 -22.8687 -22.7269
   -22.7215 -22.6482  -9.2103  -8.7647  -8.5510  -8.1837  -7.7719  -7.7179
     2.8210   2.9562   3.2192   3.3704   3.9532   4.2879   4.9635   5.1770
     5.6323   5.8763   6.1157   6.3366   6.3973   6.7023   6.7118   7.0308
     7.0569   7.3024

     occupation numbers 
     1.0000   1.0000   1.0000   1.0000   1.0000   1.0000   1.0000   1.0000
     1.0000   1.0000   1.0000   1.0000   1.0000   1.0000   1.0000   1.0000
     1.0000   1.0000   1.0000   1.0000   1.0000   1.0000   1.0000   1.0000
     1.0000   1.0000   1.0000   1.0000   1.0000   1.0000   1.0000   1.0000
     1.0000   1.0000

          k =-0.3533 0.8159-0.0662 (  5517 PWs)   bands (ev):

   -46.5132 -46.5081 -34.3609 -34.3598 -22.9130 -22.9035 -22.8698 -22.7387
   -22.6856 -22.6619  -9.0681  -8.7762  -8.6773  -7.9599  -7.8794  -7.8391
     2.7657   2.9372   3.1594   3.4951   4.1959   4.5567   4.7580   5.2014
     5.4419   5.8366   6.0884   6.2441   6.3882   6.5817   6.7516   6.8840
     7.0910   7.3315

     occupation numbers 
     1.0000   1.0000   1.0000   1.0000   1.0000   1.0000   1.0000   1.0000
     1.0000   1.0000   1.0000   1.0000   1.0000   1.0000   1.0000   1.0000
     1.0000   1.0000   1.0000   1.0000   1.0000   1.0000   1.0000   1.0000
     1.0000   1.0000   1.0000   1.0000   1.0000   1.0000   1.0000   1.0000
     1.0000   1.0000

          k =-0.3533 0.6119 0.0000 (  5516 PWs)   bands (ev):

   -46.5107 -46.5107 -34.3604 -34.3604 -22.9138 -22.8812 -22.8348 -22.7756
   -22.6986 -22.6718  -8.9148  -8.7934  -8.4971  -8.1506  -8.0573  -7.8269
     2.8064   3.0052   3.4625   3.7927   4.1202   4.2140   4.6810   5.0657
     5.3103   5.6311   5.9583   6.1778   6.5818   6.6304   6.7836   7.0538
     7.1254   7.3585

     occupation numbers 
     1.0000   1.0000   1.0000   1.0000   1.0000   1.0000   1.0000   1.0000
     1.0000   1.0000   1.0000   1.0000   1.0000   1.0000   1.0000   1.0000
     1.0000   1.0000   1.0000   1.0000   1.0000   1.0000   1.0000   1.0000
     1.0000   1.0000   1.0000   1.0000   1.0000   1.0000   1.0000   1.0000
     1.0000   1.0000

          k = 0.5299 0.3059-0.3975 (  5524 PWs)   bands (ev):

   -46.5136 -46.5077 -34.3610 -34.3597 -22.9255 -22.9177 -22.8831 -22.7240
   -22.6717 -22.6484  -9.1444  -8.8254  -8.7293  -7.9017  -7.7959  -7.7602
     2.7947   2.8090   2.9461   3.1592   4.5180   4.7755   5.0395   5.4128
     5.5135   5.6306   6.0656   6.1403   6.4044   6.5141   6.7899   6.8121
     7.0161   7.2586

     occupation numbers 
     1.0000   1.0000   1.0000   1.0000   1.0000   1.0000   1.0000   1.0000
     1.0000   1.0000   1.0000   1.0000   1.0000   1.0000   1.0000   1.0000
     1.0000   1.0000   1.0000   1.0000   1.0000   1.0000   1.0000   1.0000
     1.0000   1.0000   1.0000   1.0000   1.0000   1.0000   1.0000   1.0000
     1.0000   1.0000

          k =-0.0000 0.0000 0.1987 (  5496 PWs)   bands (ev):

   -46.5183 -46.5031 -34.3617 -34.3588 -22.9008 -22.9008 -22.8244 -22.7455
   -22.7455 -22.6449  -9.4029  -8.7550  -8.7550  -7.9182  -7.6847  -7.6847
     2.9711   2.9711   3.2127   3.3560   3.3560   4.2314   5.1240   5.1488
     5.1488   6.2766   6.3141   6.3141   6.5804   6.8237   6.8237   7.0413
     7.4698   7.4698

     occupation numbers 
     1.0000   1.0000   1.0000   1.0000   1.0000   1.0000   1.0000   1.0000
     1.0000   1.0000   1.0000   1.0000   1.0000   1.0000   1.0000   1.0000
     1.0000   1.0000   1.0000   1.0000   1.0000   1.0000   1.0000   1.0000
     1.0000   1.0000   1.0000   1.0000   1.0000   1.0000   1.0000   1.0000
     1.0000   1.0000

          k =-0.0000-0.2040 0.2650 (  5496 PWs)   bands (ev):

   -46.5166 -46.5048 -34.3614 -34.3592 -22.9085 -22.8663 -22.7978 -22.7821
   -22.7555 -22.6575  -9.2561  -8.6871  -8.5843  -8.1227  -7.8998  -7.7013
     2.8814   3.1004   3.4235   3.6653   3.8293   4.3709   4.6221   4.7451
     5.1557   5.7298   6.1621   6.4309   6.4851   6.8323   7.0027   7.0339
     7.3385   7.3952

     occupation numbers 
     1.0000   1.0000   1.0000   1.0000   1.0000   1.0000   1.0000   1.0000
     1.0000   1.0000   1.0000   1.0000   1.0000   1.0000   1.0000   1.0000
     1.0000   1.0000   1.0000   1.0000   1.0000   1.0000   1.0000   1.0000
     1.0000   1.0000   1.0000   1.0000   1.0000   1.0000   1.0000   1.0000
     1.0000   1.0000

          k =-0.0000 0.8159-0.0662 (  5482 PWs)   bands (ev):

   -46.5132 -46.5081 -34.3608 -34.3598 -22.8990 -22.8300 -22.8206 -22.7957
   -22.7497 -22.6801  -8.9870  -8.5039  -8.4742  -8.2897  -8.1818  -7.8571
     2.8957   3.3147   3.7824   3.9090   4.0541   4.3190   4.3527   4.8169
     5.0037   5.1243   5.8341   6.3547   6.6739   6.7538   7.0331   7.0985
     7.2348   7.2831

     occupation numbers 
     1.0000   1.0000   1.0000   1.0000   1.0000   1.0000   1.0000   1.0000
     1.0000   1.0000   1.0000   1.0000   1.0000   1.0000   1.0000   1.0000
     1.0000   1.0000   1.0000   1.0000   1.0000   1.0000   1.0000   1.0000
     1.0000   1.0000   1.0000   1.0000   1.0000   1.0000   1.0000   1.0000
     1.0000   1.0000

          k =-0.0000 0.6119 0.0000 (  5502 PWs)   bands (ev):

   -46.5121 -46.5092 -34.3606 -34.3600 -22.8757 -22.8674 -22.8414 -22.7750
   -22.7188 -22.6986  -8.8682  -8.6628  -8.5104  -8.1274  -8.1051  -8.0112
     3.1520   3.2861   3.3830   3.5858   4.0306   4.3151   4.6283   4.8745
     5.1925   5.4183   5.8527   6.0614   6.6536   6.8854   6.9476   7.0965
     7.1408   7.3691

     occupation numbers 
     1.0000   1.0000   1.0000   1.0000   1.0000   1.0000   1.0000   1.0000
     1.0000   1.0000   1.0000   1.0000   1.0000   1.0000   1.0000   1.0000
     1.0000   1.0000   1.0000   1.0000   1.0000   1.0000   1.0000   1.0000
     1.0000   1.0000   1.0000   1.0000   1.0000   1.0000   1.0000   1.0000
     1.0000   1.0000

          k =-0.0000 0.4079 0.0662 (  5502 PWs)   bands (ev):

   -46.5158 -46.5056 -34.3613 -34.3593 -22.9066 -22.8751 -22.8208 -22.7676
   -22.7417 -22.6593  -9.1910  -8.7300  -8.4224  -8.2892  -7.8399  -7.7603
     2.9392   3.0702   3.1540   3.7858   3.8069   4.0254   4.6599   5.0138
     5.2650   6.0189   6.2242   6.4586   6.5758   6.6875   6.8859   7.1140
     7.2180   7.3914

     occupation numbers 
     1.0000   1.0000   1.0000   1.0000   1.0000   1.0000   1.0000   1.0000
     1.0000   1.0000   1.0000   1.0000   1.0000   1.0000   1.0000   1.0000
     1.0000   1.0000   1.0000   1.0000   1.0000   1.0000   1.0000   1.0000
     1.0000   1.0000   1.0000   1.0000   1.0000   1.0000   1.0000   1.0000
     1.0000   1.0000

          k =-0.1766-0.1020 0.3312 (  5489 PWs)   bands (ev):

   -46.5158 -46.5056 -34.3613 -34.3593 -22.9062 -22.8725 -22.8188 -22.7691
   -22.7413 -22.6606  -9.2146  -8.7111  -8.4150  -8.3249  -7.8439  -7.7509
     3.0058   3.0841   3.4733   3.7698   3.8016   4.1175   4.6997   5.0315
     5.1423   5.7562   5.9747   6.4532   6.4645   6.6181   6.7437   7.0915
     7.2670   7.3935

     occupation numbers 
     1.0000   1.0000   1.0000   1.0000   1.0000   1.0000   1.0000   1.0000
     1.0000   1.0000   1.0000   1.0000   1.0000   1.0000   1.0000   1.0000
     1.0000   1.0000   1.0000   1.0000   1.0000   1.0000   1.0000   1.0000
     1.0000   1.0000   1.0000   1.0000   1.0000   1.0000   1.0000   1.0000
     1.0000   1.0000

          k =-0.1766 0.9178 0.0000 (  5504 PWs)   bands (ev):

   -46.5136 -46.5077 -34.3609 -34.3598 -22.9122 -22.8669 -22.8467 -22.7598
   -22.7215 -22.6651  -9.0790  -8.6246  -8.5948  -8.1492  -8.0376  -7.7732
     2.8628   3.1692   3.4495   3.8773   3.9470   4.3301   4.5308   5.0133
     5.2745   5.6135   6.0274   6.2134   6.4425   6.6005   6.7995   7.0120
     7.1592   7.2892

     occupation numbers 
     1.0000   1.0000   1.0000   1.0000   1.0000   1.0000   1.0000   1.0000
     1.0000   1.0000   1.0000   1.0000   1.0000   1.0000   1.0000   1.0000
     1.0000   1.0000   1.0000   1.0000   1.0000   1.0000   1.0000   1.0000
     1.0000   1.0000   1.0000   1.0000   1.0000   1.0000   1.0000   1.0000
     1.0000   1.0000

          k =-0.1766 0.7139 0.0662 (  5506 PWs)   bands (ev):

   -46.5107 -46.5106 -34.3604 -34.3603 -22.9021 -22.9007 -22.8039 -22.8018
   -22.6837 -22.6829  -8.8783  -8.8627  -8.4014  -8.2947  -7.9144  -7.8955
     2.8825   3.0082   3.4258   3.6916   4.1690   4.5600   4.5984   4.8934
     5.2426   5.6287   6.1222   6.2364   6.3193   6.6068   6.8099   6.9796
     7.1624   7.2866

     occupation numbers 
     1.0000   1.0000   1.0000   1.0000   1.0000   1.0000   1.0000   1.0000
     1.0000   1.0000   1.0000   1.0000   1.0000   1.0000   1.0000   1.0000
     1.0000   1.0000   1.0000   1.0000   1.0000   1.0000   1.0000   1.0000
     1.0000   1.0000   1.0000   1.0000   1.0000   1.0000   1.0000   1.0000
     1.0000   1.0000

          k =-0.1766 0.5099 0.1325 (  5513 PWs)   bands (ev):

   -46.5136 -46.5077 -34.3609 -34.3598 -22.9122 -22.8683 -22.8490 -22.7598
   -22.7204 -22.6645  -9.0645  -8.6299  -8.5807  -8.1492  -8.0471  -7.7662
     2.8225   3.1749   3.3004   3.5993   3.9578   4.3703   4.5421   5.1496
     5.2977   5.8435   5.9685   6.2832   6.5690   6.7426   6.8252   6.9494
     7.1512   7.3730

     occupation numbers 
     1.0000   1.0000   1.0000   1.0000   1.0000   1.0000   1.0000   1.0000
     1.0000   1.0000   1.0000   1.0000   1.0000   1.0000   1.0000   1.0000
     1.0000   1.0000   1.0000   1.0000   1.0000   1.0000   1.0000   1.0000
     1.0000   1.0000   1.0000   1.0000   1.0000   1.0000   1.0000   1.0000
     1.0000   1.0000

          k = 0.7065 0.4079-0.3312 (  5516 PWs)   bands (ev):

   -46.5132 -46.5081 -34.3609 -34.3598 -22.9119 -22.9031 -22.8701 -22.7375
   -22.6858 -22.6628  -9.0806  -8.7834  -8.6664  -7.9630  -7.8956  -7.8248
     2.9512   3.0107   3.0469   3.4383   4.2996   4.4760   4.8587   5.1522
     5.6242   5.7236   6.0736   6.1116   6.4088   6.5111   6.6958   6.7834
     6.9636   7.3228

     occupation numbers 
     1.0000   1.0000   1.0000   1.0000   1.0000   1.0000   1.0000   1.0000
     1.0000   1.0000   1.0000   1.0000   1.0000   1.0000   1.0000   1.0000
     1.0000   1.0000   1.0000   1.0000   1.0000   1.0000   1.0000   1.0000
     1.0000   1.0000   1.0000   1.0000   1.0000   1.0000   1.0000   1.0000
     1.0000   1.0000

          k = 0.7065 0.2040-0.2650 (  5513 PWs)   bands (ev):

   -46.5121 -46.5092 -34.3607 -34.3601 -22.9165 -22.9144 -22.8470 -22.7580
   -22.6719 -22.6651  -9.0084  -8.8674  -8.5763  -8.0832  -7.8652  -7.8039
     2.8029   2.8333   3.1915   3.7101   3.9982   4.7558   4.9134   5.1046
     5.5779   5.7201   5.9469   6.0791   6.3539   6.5231   6.7949   6.8875
     7.0213   7.3127

     occupation numbers 
     1.0000   1.0000   1.0000   1.0000   1.0000   1.0000   1.0000   1.0000
     1.0000   1.0000   1.0000   1.0000   1.0000   1.0000   1.0000   1.0000
     1.0000   1.0000   1.0000   1.0000   1.0000   1.0000   1.0000   1.0000
     1.0000   1.0000   1.0000   1.0000   1.0000   1.0000   1.0000   1.0000
     1.0000   1.0000

          k = 0.7065-0.0000-0.1987 (  5518 PWs)   bands (ev):

   -46.5107 -46.5107 -34.3604 -34.3604 -22.9016 -22.9016 -22.8034 -22.8034
   -22.6829 -22.6829  -8.8665  -8.8665  -8.3525  -8.3525  -7.9012  -7.9012
     2.8975   2.8975   3.5741   3.5741   4.2958   4.2958   4.7710   4.7710
     5.4238   5.4238   6.2082   6.2082   6.5408   6.5408   6.9051   6.9051
     7.2609   7.2609

     occupation numbers 
     1.0000   1.0000   1.0000   1.0000   1.0000   1.0000   1.0000   1.0000
     1.0000   1.0000   1.0000   1.0000   1.0000   1.0000   1.0000   1.0000
     1.0000   1.0000   1.0000   1.0000   1.0000   1.0000   1.0000   1.0000
     1.0000   1.0000   1.0000   1.0000   1.0000   1.0000   1.0000   1.0000
     1.0000   1.0000

          k = 0.5299 0.3059-0.1987 (  5508 PWs)   bands (ev):

   -46.5132 -46.5081 -34.3609 -34.3598 -22.9122 -22.9038 -22.8709 -22.7377
   -22.6855 -22.6625  -9.0698  -8.7790  -8.6709  -7.9654  -7.8856  -7.8293
     2.8767   3.0050   3.0466   3.2995   4.2575   4.5827   4.8762   5.1282
     5.5661   5.7035   6.1578   6.3725   6.4483   6.4877   6.7574   6.7932
     6.9570   7.3454

     occupation numbers 
     1.0000   1.0000   1.0000   1.0000   1.0000   1.0000   1.0000   1.0000
     1.0000   1.0000   1.0000   1.0000   1.0000   1.0000   1.0000   1.0000
     1.0000   1.0000   1.0000   1.0000   1.0000   1.0000   1.0000   1.0000
     1.0000   1.0000   1.0000   1.0000   1.0000   1.0000   1.0000   1.0000
     1.0000   1.0000

          k =-0.0000 0.0000 0.3975 (  5466 PWs)   bands (ev):

   -46.5151 -46.5063 -34.3611 -34.3595 -22.8689 -22.8689 -22.7884 -22.7793
   -22.7793 -22.6848  -9.1122  -8.5453  -8.5453  -8.2585  -7.9297  -7.9297
     3.3082   3.3082   3.5987   3.9291   3.9291   4.5645   4.5645   4.5759
     4.6289   5.5879   5.5879   5.9425   6.5467   6.9151   6.9151   7.0173
     7.3730   7.3730

     occupation numbers 
     1.0000   1.0000   1.0000   1.0000   1.0000   1.0000   1.0000   1.0000
     1.0000   1.0000   1.0000   1.0000   1.0000   1.0000   1.0000   1.0000
     1.0000   1.0000   1.0000   1.0000   1.0000   1.0000   1.0000   1.0000
     1.0000   1.0000   1.0000   1.0000   1.0000   1.0000   1.0000   1.0000
     1.0000   1.0000

          k =-0.0000 1.0198 0.0662 (  5480 PWs)   bands (ev):

   -46.5132 -46.5081 -34.3608 -34.3598 -22.8968 -22.8296 -22.8201 -22.7932
   -22.7509 -22.6817  -9.0115  -8.5128  -8.4507  -8.3065  -8.1933  -7.8458
     3.1067   3.4762   3.7299   3.9992   4.0026   4.2968   4.5110   4.8395
     4.9803   5.0091   5.6438   6.1714   6.5214   6.5520   7.0137   7.1117
     7.2001   7.2501

     occupation numbers 
     1.0000   1.0000   1.0000   1.0000   1.0000   1.0000   1.0000   1.0000
     1.0000   1.0000   1.0000   1.0000   1.0000   1.0000   1.0000   1.0000
     1.0000   1.0000   1.0000   1.0000   1.0000   1.0000   1.0000   1.0000
     1.0000   1.0000   1.0000   1.0000   1.0000   1.0000   1.0000   1.0000
     1.0000   1.0000

          k =-0.0000 0.8159 0.1325 (  5497 PWs)   bands (ev):

   -46.5107 -46.5106 -34.3604 -34.3603 -22.9138 -22.8781 -22.8367 -22.7721
   -22.7009 -22.6721  -8.9233  -8.8189  -8.4816  -8.1510  -8.0508  -7.8351
     2.8518   3.2852   3.3565   3.8134   4.1288   4.1547   4.9008   4.9877
     5.3984   5.5404   5.9967   5.9997   6.2778   6.5946   6.8578   6.8670
     7.0471   7.3358

     occupation numbers 
     1.0000   1.0000   1.0000   1.0000   1.0000   1.0000   1.0000   1.0000
     1.0000   1.0000   1.0000   1.0000   1.0000   1.0000   1.0000   1.0000
     1.0000   1.0000   1.0000   1.0000   1.0000   1.0000   1.0000   1.0000
     1.0000   1.0000   1.0000   1.0000   1.0000   1.0000   1.0000   1.0000
     1.0000   1.0000

          k = 0.8832 0.5099-0.2650 (  5497 PWs)   bands (ev):

   -46.5121 -46.5092 -34.3606 -34.3600 -22.8749 -22.8646 -22.8378 -22.7743
   -22.7209 -22.7003  -8.9049  -8.6875  -8.4904  -8.1258  -8.1148  -8.0021
     3.3849   3.4202   3.5052   4.0136   4.1261   4.2487   4.4202   4.7211
     5.1029   5.2930   5.6388   5.8238   6.6002   6.6835   6.8531   7.0428
     7.0811   7.3077

     occupation numbers 
     1.0000   1.0000   1.0000   1.0000   1.0000   1.0000   1.0000   1.0000
     1.0000   1.0000   1.0000   1.0000   1.0000   1.0000   1.0000   1.0000
     1.0000   1.0000   1.0000   1.0000   1.0000   1.0000   1.0000   1.0000
     1.0000   1.0000   1.0000   1.0000   1.0000   1.0000   1.0000   1.0000
     1.0000   1.0000

          k = 0.8832 0.3059-0.1987 (  5492 PWs)   bands (ev):

   -46.5107 -46.5107 -34.3603 -34.3603 -22.9005 -22.9005 -22.8021 -22.8021
   -22.6840 -22.6840  -8.8848  -8.8848  -8.3441  -8.3441  -7.9049  -7.9049
     3.0465   3.0465   3.5597   3.5597   4.4367   4.4367   4.6811   4.6811
     5.4708   5.4708   6.0080   6.0080   6.4349   6.4349   6.8006   6.8006
     7.2080   7.2080

     occupation numbers 
     1.0000   1.0000   1.0000   1.0000   1.0000   1.0000   1.0000   1.0000
     1.0000   1.0000   1.0000   1.0000   1.0000   1.0000   1.0000   1.0000
     1.0000   1.0000   1.0000   1.0000   1.0000   1.0000   1.0000   1.0000
     1.0000   1.0000   1.0000   1.0000   1.0000   1.0000   1.0000   1.0000
     1.0000   1.0000

          k =-0.0000 0.0000-0.5962 (  5464 PWs)   bands (ev):

   -46.5107 -46.5107 -34.3603 -34.3603 -22.8246 -22.8246 -22.8246 -22.8246
   -22.7376 -22.7376  -8.6975  -8.6975  -8.2463  -8.2463  -8.2463  -8.2463
     3.8706   3.8706   3.8706   3.8706   4.0924   4.0924   4.7300   4.7300
     4.7300   4.7300   5.1898   5.1898   6.8366   6.8366   7.1452   7.1452
     7.1452   7.1452

     occupation numbers 
     1.0000   1.0000   1.0000   1.0000   1.0000   1.0000   1.0000   1.0000
     1.0000   1.0000   1.0000   1.0000   1.0000   1.0000   1.0000   1.0000
     1.0000   1.0000   1.0000   1.0000   1.0000   1.0000   1.0000   1.0000
     1.0000   1.0000   1.0000   1.0000   1.0000   1.0000   1.0000   1.0000
     1.0000   1.0000

     highest occupied level (ev):     7.4698

!    total energy              =    -936.83843987 Ry
     estimated scf accuracy    <          9.0E-13 Ry

     The total energy is the sum of the following terms:
     one-electron contribution =    -137.08919013 Ry
     hartree contribution      =     103.91413670 Ry
     xc contribution           =    -108.37719574 Ry
     ewald contribution        =    -331.83045599 Ry
     one-center paw contrib.   =    -463.45573470 Ry
      -> PAW hartree energy AE =     295.04970196 Ry
      -> PAW hartree energy PS =    -293.52335025 Ry
      -> PAW xc energy AE      =    -560.91656503 Ry
      -> PAW xc energy PS      =      95.93447863 Ry
      -> total E_H with PAW    =     105.44048840 Ry
      -> total E_XC with PAW   =    -573.35928215 Ry

     convergence has been achieved in  25 iterations

     Forces acting on atoms (cartesian axes, Ry/au):

     atom    1 type  1   force =     0.00000000    0.00000000   -0.00042029
     atom    2 type  1   force =     0.00000000    0.00000000   -0.00042029
     atom    3 type  2   force =    -0.00533287    0.00209680    0.00025390
     atom    4 type  2   force =     0.00085056   -0.00566680    0.00025390
     atom    5 type  2   force =     0.00448232    0.00357000    0.00025390
     atom    6 type  2   force =    -0.00085056   -0.00566680    0.00025390
     atom    7 type  2   force =     0.00533287    0.00209680    0.00025390
     atom    8 type  2   force =    -0.00448232    0.00357000    0.00025390
     atom    9 type  3   force =     0.00000000   -0.00000000   -0.00034143
     atom   10 type  3   force =     0.00000000    0.00000000   -0.00034143
     The non-local contrib.  to forces
     atom    1 type  1   force =     0.00000000    0.00000000    0.01017659
     atom    2 type  1   force =     0.00000000    0.00000000    0.01017659
     atom    3 type  2   force =     0.31070287   -0.18323751   -0.04220911
     atom    4 type  2   force =     0.00333690    0.36069533   -0.04220911
     atom    5 type  2   force =    -0.31403977   -0.17745782   -0.04220911
     atom    6 type  2   force =    -0.00333690    0.36069533   -0.04220911
     atom    7 type  2   force =    -0.31070287   -0.18323751   -0.04220911
     atom    8 type  2   force =     0.31403977   -0.17745782   -0.04220911
     atom    9 type  3   force =     0.00000000   -0.00000000   -0.01695961
     atom   10 type  3   force =     0.00000000    0.00000000   -0.01695961
     The ionic contribution  to forces
     atom    1 type  1   force =     0.00000000   -0.00000000   -1.14104720
     atom    2 type  1   force =    -0.00000000    0.00000000   -1.14104720
     atom    3 type  2   force =    -3.67391665    2.77682038    0.37163190
     atom    4 type  2   force =    -0.56783866   -4.57011534    0.37163190
     atom    5 type  2   force =     4.24175532    1.79329496    0.37163190
     atom    6 type  2   force =     0.56783866   -4.57011534    0.37163190
     atom    7 type  2   force =     3.67391665    2.77682038    0.37163190
     atom    8 type  2   force =    -4.24175532    1.79329496    0.37163190
     atom    9 type  3   force =     0.00000000   -0.00000000    0.02615151
     atom   10 type  3   force =     0.00000000    0.00000000    0.02615150
     The local contribution  to forces
     atom    1 type  1   force =    -0.00000000   -0.00000000    1.13045044
     atom    2 type  1   force =    -0.00000000    0.00000000    1.13045044
     atom    3 type  2   force =     3.35894313   -2.59300180   -0.32904706
     atom    4 type  2   force =     0.56613386    4.20543098   -0.32904706
     atom    5 type  2   force =    -3.92507700   -1.61242918   -0.32904706
     atom    6 type  2   force =    -0.56613387    4.20543098   -0.32904707
     atom    7 type  2   force =    -3.35894313   -2.59300180   -0.32904707
     atom    8 type  2   force =     3.92507700   -1.61242918   -0.32904707
     atom    9 type  3   force =     0.00000000    0.00000000   -0.00526542
     atom   10 type  3   force =     0.00000000    0.00000000   -0.00526542
     The core correction contribution to forces
     atom    1 type  1   force =     0.00000000    0.00000000    0.00000000
     atom    2 type  1   force =     0.00000000    0.00000000    0.00000000
     atom    3 type  2   force =    -0.00106168    0.00151540   -0.00012166
     atom    4 type  2   force =    -0.00078153   -0.00167714   -0.00012166
     atom    5 type  2   force =     0.00184321    0.00016174   -0.00012166
     atom    6 type  2   force =     0.00078153   -0.00167714   -0.00012166
     atom    7 type  2   force =     0.00106168    0.00151540   -0.00012166
     atom    8 type  2   force =    -0.00184321    0.00016174   -0.00012166
     atom    9 type  3   force =    -0.00000000    0.00000000   -0.00426781
     atom   10 type  3   force =     0.00000000   -0.00000000   -0.00426781
     The Hubbard contrib.    to forces
     atom    1 type  1   force =     0.00000000    0.00000000    0.00000000
     atom    2 type  1   force =     0.00000000    0.00000000    0.00000000
     atom    3 type  2   force =     0.00000000    0.00000000    0.00000000
     atom    4 type  2   force =     0.00000000    0.00000000    0.00000000
     atom    5 type  2   force =     0.00000000    0.00000000    0.00000000
     atom    6 type  2   force =     0.00000000    0.00000000    0.00000000
     atom    7 type  2   force =     0.00000000    0.00000000    0.00000000
     atom    8 type  2   force =     0.00000000    0.00000000    0.00000000
     atom    9 type  3   force =     0.00000000    0.00000000    0.00000000
     atom   10 type  3   force =     0.00000000    0.00000000    0.00000000
     The SCF correction term to forces
     atom    1 type  1   force =    -0.00000000   -0.00000000   -0.00000004
     atom    2 type  1   force =    -0.00000000   -0.00000000   -0.00000004
     atom    3 type  2   force =    -0.00000054    0.00000033   -0.00000008
     atom    4 type  2   force =    -0.00000002   -0.00000063   -0.00000008
     atom    5 type  2   force =     0.00000056    0.00000030   -0.00000008
     atom    6 type  2   force =     0.00000002   -0.00000063   -0.00000008
     atom    7 type  2   force =     0.00000054    0.00000033   -0.00000008
     atom    8 type  2   force =    -0.00000056    0.00000030   -0.00000008
     atom    9 type  3   force =     0.00000000    0.00000000    0.00000000
     atom   10 type  3   force =     0.00000000   -0.00000000    0.00000000

     Total force =     0.014071     Total SCF correction =     0.000002


     Computing stress (Cartesian axis) and pressure

          total   stress  (Ry/bohr**3)                   (kbar)     P=       26.06
   0.00014975   0.00000000  -0.00000000           22.03        0.00       -0.00
  -0.00000000   0.00014975   0.00000000           -0.00       22.03        0.00
   0.00000000   0.00000000   0.00023204            0.00        0.00       34.13

     kinetic stress (kbar)  27081.69      0.00     -0.00
                                0.00  27081.69      0.00
                               -0.00      0.00  27049.36

     local   stress (kbar) -13075.55     -0.00     -0.00
                               -0.00 -13075.55     -0.00
                               -0.00     -0.00 -10824.55

     nonloc. stress (kbar)   7045.65     -0.00     -0.00
                               -0.00   7045.65      0.00
                               -0.00      0.00   7094.93

     hartree stress (kbar)   7446.54      0.00      0.00
                                0.00   7446.54      0.00
                                0.00      0.00   6899.61

     exc-cor stress (kbar)   1086.74      0.00     -0.00
                                0.00   1086.74      0.00
                               -0.00      0.00   1083.29

     corecor stress (kbar)  -6934.32     -0.00      0.00
                               -0.00  -6934.32     -0.00
                                0.00     -0.00  -6935.06

     ewald   stress (kbar) -22628.72      0.00      0.00
                                0.00 -22628.72      0.00
                                0.00      0.00 -24333.44

     hubbard stress (kbar)      0.00      0.00      0.00
                                0.00      0.00      0.00
                                0.00      0.00      0.00

     DFT-D   stress (kbar)      0.00      0.00      0.00
                                0.00      0.00      0.00
                                0.00      0.00      0.00

     XDM     stress (kbar)      0.00      0.00      0.00
                                0.00      0.00      0.00
                                0.00      0.00      0.00

     dft-nl  stress (kbar)      0.00      0.00      0.00
                                0.00      0.00      0.00
                                0.00      0.00      0.00

     TS-vdW  stress (kbar)      0.00      0.00      0.00
                                0.00      0.00      0.00
                                0.00      0.00      0.00

     MDB     stress (kbar)      0.00      0.00      0.00
                                0.00      0.00      0.00
                                0.00      0.00      0.00

     3D-RISM stress (kbar)      0.00      0.00      0.00
                                0.00      0.00      0.00
                                0.00      0.00      0.00

     Message from routine punch:
     Nothing written, as per user request (disk_io='none')
 
     init_run     :      0.56s CPU      0.80s WALL (       1 calls)
     electrons    :     16.42s CPU     16.80s WALL (       1 calls)
     forces       :      0.08s CPU      0.08s WALL (       1 calls)
     stress       :      0.16s CPU      0.16s WALL (       1 calls)

     Called by init_run:
     wfcinit      :      0.19s CPU      0.30s WALL (       1 calls)
     wfcinit:atom :      0.03s CPU      0.03s WALL (      32 calls)
     wfcinit:wfcr :      0.13s CPU      0.21s WALL (      32 calls)
     potinit      :      0.09s CPU      0.13s WALL (       1 calls)
     hinit0       :      0.20s CPU      0.24s WALL (       1 calls)

     Called by electrons:
     c_bands      :     12.34s CPU     12.60s WALL (      25 calls)
     sum_band     :      1.72s CPU      1.75s WALL (      25 calls)
     v_of_rho     :      0.10s CPU      0.11s WALL (      26 calls)
     v_h          :      0.04s CPU      0.05s WALL (      26 calls)
     v_xc         :      0.06s CPU      0.07s WALL (      28 calls)
     newd         :      0.24s CPU      0.28s WALL (      26 calls)
     PAW_pot      :      1.87s CPU      1.92s WALL (      26 calls)
     mix_rho      :      0.16s CPU      0.17s WALL (      25 calls)

     Called by c_bands:
     init_us_2    :      0.55s CPU      0.57s WALL (    1696 calls)
     cegterg      :     11.20s CPU     11.43s WALL (     800 calls)

     Called by sum_band:
     sum_band:wei :      0.00s CPU      0.00s WALL (      25 calls)
     sum_band:loo :      1.32s CPU      1.34s WALL (      25 calls)
     sum_band:buf :      0.21s CPU      0.22s WALL (     800 calls)
     sum_band:ini :      0.26s CPU      0.27s WALL (     800 calls)
     sum_band:cal :      0.01s CPU      0.01s WALL (     800 calls)
     sum_band:bec :      0.31s CPU      0.31s WALL (     800 calls)
     addusdens    :      0.27s CPU      0.27s WALL (      25 calls)
                                        0.27s GPU  (      25 calls)
     addusd:skk   :      0.01s CPU      0.01s WALL (      75 calls)
                                        0.01s GPU  (      75 calls)

     Called by *egterg:
     cdiaghg      :      4.94s CPU      5.06s WALL (    4160 calls)
                                        5.02s GPU  (    4160 calls)
     cegterg:over :      0.32s CPU      0.32s WALL (    3360 calls)
     cegterg:upda :      1.03s CPU      1.03s WALL (    3360 calls)
     cegterg:last :      0.14s CPU      0.14s WALL (    2311 calls)
     h_psi        :      3.17s CPU      3.40s WALL (    4192 calls)
     s_psi        :      1.11s CPU      1.13s WALL (    4192 calls)
     g_psi        :      0.07s CPU      0.07s WALL (    3360 calls)

     Called by h_psi:
     h_psi:calbec :      0.08s CPU      0.11s WALL (    4192 calls)
     vloc_psi     :      2.04s CPU      2.27s WALL (    4192 calls)
                                        2.23s GPU  (    4192 calls)
     add_vuspsi   :      0.93s CPU      0.95s WALL (    4192 calls)

     General routines
     calbec       :      0.09s CPU      0.12s WALL (    5536 calls)
     fft          :      0.03s CPU      0.07s WALL (     361 calls)
                                        0.03s GPU  (     335 calls)
     ffts         :      0.01s CPU      0.02s WALL (      51 calls)
                                        0.00s GPU  (      25 calls)
     fftw         :      0.14s CPU      1.39s WALL (   19268 calls)
                                        1.20s GPU  (   19268 calls)
     interpolate  :      0.06s CPU      0.08s WALL (      26 calls)
 
     Parallel routines

     PAW routines
     PAW_pot      :      1.87s CPU      1.92s WALL (      26 calls)
     PAW_symme    :      0.00s CPU      0.00s WALL (      51 calls)
 
     PWSCF        :     17.55s CPU     18.20s WALL

 
   This run was terminated on:  17: 5:57  29Nov2025            

=------------------------------------------------------------------------------=
   JOB DONE.
=------------------------------------------------------------------------------=
