
     Program PWSCF v.7.5 starts on 29Nov2025 at 17: 5:38 

     This program is part of the open-source Quantum ESPRESSO suite
     for quantum simulation of materials; please cite
         "P. Giannozzi et al., J. Phys.:Condens. Matter 21 395502 (2009);
         "P. Giannozzi et al., J. Phys.:Condens. Matter 29 465901 (2017);
         "P. Giannozzi et al., J. Chem. Phys. 152 154105 (2020);
          URL http://www.quantum-espresso.org", 
     in publications or presentations arising from this work. More details at
     http://www.quantum-espresso.org/quote

     Parallel version (MPI & OpenMP), running on       1 processor cores
     Number of MPI processes:                 1
     Threads/MPI process:                     1

     MPI processes distributed on     1 nodes
     1824275 MiB available memory on the printing compute node when the environment starts
 
     Reading input from espresso.pwi
Warning: card &CELL ignored
Warning: card &FCP ignored
Warning: card &RISM ignored

     Current dimensions of program PWSCF are:
     Max number of different atomic species (ntypx) = 10
     Max number of k-points (npk) =  40000
     Max angular momentum in pseudopotentials (lmaxx) =  4
     file O.pbesol-n-kjpaw_psl.0.1.UPF: wavefunction(s)  2P renormalized
     file Nb.pbesol-spn-kjpaw_psl.0.3.0.UPF: wavefunction(s)  4S 4P renormalized
     Message from routine setup:
     using ibrav=0 with symmetry is DISCOURAGED, use correct ibrav instead
 
     Subspace diagonalization in iterative solution of the eigenvalue problem:
     a serial algorithm will be used

 
     G-vector sticks info
     --------------------
     sticks:   dense  smooth     PW     G-vecs:    dense   smooth      PW
     Sum        2779    1663    483                93865    43579    6929
 
     Using Slab Decomposition
 


     bravais-lattice index     =            0
     lattice parameter (alat)  =      10.2024  a.u.
     unit-cell volume          =     694.3565 (a.u.)^3
     number of atoms/cell      =           10
     number of atomic types    =            3
     number of electrons       =        68.00
     number of Kohn-Sham states=           34
     kinetic-energy cutoff     =      60.0000  Ry
     charge density cutoff     =     400.0000  Ry
     scf convergence threshold =      1.0E-12
     mixing beta               =       0.7000
     number of iterations used =            8  plain     mixing
     Exchange-correlation= SLA  PW   PSX  PSC
                           (   1   4  10   8   0   0   0)

     GPU acceleration is ACTIVE.  1 visible GPUs per MPI rank


     GPU used by master process:

        Device Number: 0
        Device name: NVIDIA B200
        Compute capability : 100
        Ratio of single to double precision performance  : 16
        Memory Clock Rate (KHz): 3996000
        Memory Bus Width (bits): 7680
        Peak Memory Bandwidth (GB/s): ******

     celldm(1)=  10.202370  celldm(2)=   0.000000  celldm(3)=   0.000000
     celldm(4)=   0.000000  celldm(5)=   0.000000  celldm(6)=   0.000000

     crystal axes: (cart. coord. in units of alat)
               a(1) = (   0.475147   0.274326   0.836050 )  
               a(2) = (  -0.475147   0.274326   0.836050 )  
               a(3) = (   0.000000  -0.548653   0.836050 )  

     reciprocal axes: (cart. coord. in units 2 pi/alat)
               b(1) = (  1.052306  0.607549  0.398700 )  
               b(2) = ( -1.052306  0.607549  0.398700 )  
               b(3) = (  0.000000 -1.215098  0.398700 )  


     PseudoPot. # 1 for Li read from file:
     /home/qhossain/SSSP_1.3.0_PBEsol_efficiency/li_pbesol_v1.4.uspp.F.UPF
     MD5 check sum: aa28d9aeea6a965f2dc95ee9517b3536
     Pseudo is Ultrasoft, Zval =  3.0
     Generated by new atomic code, or converted to UPF format
     Using radial grid of  751 points,  5 beta functions with: 
                l(1) =   0
                l(2) =   0
                l(3) =   0
                l(4) =   1
                l(5) =   1
     Q(r) pseudized with 10 coefficients,  rinner =    1.150   1.150   1.150


     PseudoPot. # 2 for O  read from file:
     /home/qhossain/SSSP_1.3.0_PBEsol_efficiency/O.pbesol-n-kjpaw_psl.0.1.UPF
     MD5 check sum: 81d73d1479e654e5638b0319f0d6c2c7
     Pseudo is Projector augmented-wave + core cor, Zval =  6.0
     Generated using "atomic" code by A. Dal Corso  v.6.0 svn rev. 13079
     Shape of augmentation charge: BESSEL
     Using radial grid of 1095 points,  4 beta functions with: 
                l(1) =   0
                l(2) =   0
                l(3) =   1
                l(4) =   1
     Q(r) pseudized with 0 coefficients 


     PseudoPot. # 3 for Nb read from file:
     /home/qhossain/SSSP_1.3.0_PBEsol_efficiency/Nb.pbesol-spn-kjpaw_psl.0.3.0.UPF
     MD5 check sum: 3501bca1474143575298708b2d32ca28
     Pseudo is Projector augmented-wave + core cor, Zval = 13.0
     Generated using "atomic" code by A. Dal Corso  v.6.0 svn rev. 13079
     Shape of augmentation charge: PSQ
     Using radial grid of 1227 points,  6 beta functions with: 
                l(1) =   0
                l(2) =   0
                l(3) =   1
                l(4) =   1
                l(5) =   2
                l(6) =   2
     Q(r) pseudized with 0 coefficients 


     atomic species   valence    mass     pseudopotential
     Li                3.00     6.94000     Li( 1.00)
     O                 6.00    15.99900     O ( 1.00)
     Nb               13.00    92.90637     Nb( 1.00)

      6 Sym. Ops. (no inversion) found ( 3 have fractional translation)


                                    s                        frac. trans.

      isym =  1     identity                                     

 cryst.   s( 1) = (     1          0          0      )
                  (     0          1          0      )
                  (     0          0          1      )

 cart.    s( 1) = (  1.0000000 -0.0000000  0.0000000 )
                  (  0.0000000  1.0000000 -0.0000000 )
                  (  0.0000000 -0.0000000  1.0000000 )


      isym =  2     120 deg rotation - cryst. axis [0,0,1]       

 cryst.   s( 2) = (     0          1          0      )
                  (     0          0          1      )
                  (     1          0          0      )

 cart.    s( 2) = ( -0.5000000 -0.8660254 -0.0000000 )
                  (  0.8660254 -0.5000000 -0.0000000 )
                  (  0.0000000  0.0000000  1.0000000 )


      isym =  3     120 deg rotation - cryst. axis [0,0,-1]      

 cryst.   s( 3) = (     0          0          1      )
                  (     1          0          0      )
                  (     0          1          0      )

 cart.    s( 3) = ( -0.5000000  0.8660254  0.0000000 )
                  ( -0.8660254 -0.5000000 -0.0000000 )
                  (  0.0000000  0.0000000  1.0000000 )


      isym =  4     inv. 180 deg rotation - cart. axis [1,0,0]   

 cryst.   s( 4) = (     0          1          0      )    f =(  0.5000000 )
                  (     1          0          0      )       (  0.5000000 )
                  (     0          0          1      )       (  0.5000000 )

 cart.    s( 4) = ( -1.0000000 -0.0000000  0.0000000 )    f =( -0.0000000 )
                  (  0.0000000  1.0000000 -0.0000000 )       ( -0.0000000 )
                  (  0.0000000 -0.0000000  1.0000000 )       (  1.2540755 )


      isym =  5     inv. 180 deg rotation - cryst. axis [0,1,0]  

 cryst.   s( 5) = (     1          0          0      )    f =(  0.5000000 )
                  (     0          0          1      )       (  0.5000000 )
                  (     0          1          0      )       (  0.5000000 )

 cart.    s( 5) = (  0.5000000  0.8660254  0.0000000 )    f =(  0.0000000 )
                  (  0.8660254 -0.5000000 -0.0000000 )       ( -0.0000000 )
                  (  0.0000000  0.0000000  1.0000000 )       (  1.2540755 )


      isym =  6     inv. 180 deg rotation - cryst. axis [1,1,0]  

 cryst.   s( 6) = (     0          0          1      )    f =(  0.5000000 )
                  (     0          1          0      )       (  0.5000000 )
                  (     1          0          0      )       (  0.5000000 )

 cart.    s( 6) = (  0.5000000 -0.8660254 -0.0000000 )    f =( -0.0000000 )
                  ( -0.8660254 -0.5000000 -0.0000000 )       ( -0.0000000 )
                  (  0.0000000  0.0000000  1.0000000 )       (  1.2540755 )


   Cartesian axes

     site n.     atom                  positions (alat units)
         1        Li     tau(   1) = (   0.0000000  -0.0000000   1.9649582  )
         2        Li     tau(   2) = (   0.0000000  -0.0000000   0.7108826  )
         3        O      tau(   3) = (  -0.3045603  -0.0388432   1.4198744  )
         4        O      tau(   4) = (   0.1859194  -0.2443354   1.4198744  )
         5        O      tau(   5) = (   0.1186409   0.2831786   1.4198744  )
         6        O      tau(   6) = (   0.2892278   0.0299910   1.0018492  )
         7        O      tau(   7) = (  -0.1705869   0.2354831   1.0018492  )
         8        O      tau(   8) = (  -0.1186409  -0.2654741   1.0018492  )
         9        Nb     tau(   9) = (  -0.0000000  -0.0000000   1.2567746  )
        10        Nb     tau(  10) = (   0.0000000  -0.0000000   0.0026991  )

   Crystallographic axes

     site n.     atom                  positions (cryst. coord.)
         1        Li     tau(   1) = (  0.7834289  0.7834289  0.7834289  )
         2        Li     tau(   2) = (  0.2834289  0.2834289  0.2834289  )
         3        O      tau(   3) = (  0.2220144  0.8629954  0.6133023  )
         4        O      tau(   4) = (  0.6133023  0.2220144  0.8629954  )
         5        O      tau(   5) = (  0.8629954  0.6133023  0.2220144  )
         6        O      tau(   6) = (  0.7220144  0.1133023  0.3629954  )
         7        O      tau(   7) = (  0.3629954  0.7220144  0.1133023  )
         8        O      tau(   8) = (  0.1133023  0.3629954  0.7220144  )
         9        Nb     tau(   9) = (  0.5010761  0.5010761  0.5010761  )
        10        Nb     tau(  10) = (  0.0010761  0.0010761  0.0010761  )

     number of k points=    32
                       cart. coord. in units 2pi/alat
        k(    1) = (   0.0000000   0.0000000   0.0000000), wk =   0.0092593
        k(    2) = (   0.0000000  -0.2025163   0.0664500), wk =   0.0555556
        k(    3) = (   0.0000000  -0.4050326   0.1329000), wk =   0.0555556
        k(    4) = (  -0.0000000   0.6075489  -0.1993500), wk =   0.0277778
        k(    5) = (  -0.1753843  -0.1012581   0.1329000), wk =   0.0555556
        k(    6) = (  -0.1753843  -0.3037744   0.1993500), wk =   0.1111111
        k(    7) = (  -0.1753843   0.7088070  -0.1329000), wk =   0.1111111
        k(    8) = (  -0.1753843   0.5062907  -0.0664500), wk =   0.1111111
        k(    9) = (  -0.1753843   0.3037744   0.0000000), wk =   0.0555556
        k(   10) = (  -0.3507685  -0.2025163   0.2658000), wk =   0.0555556
        k(   11) = (  -0.3507685   0.8100652  -0.0664500), wk =   0.1111111
        k(   12) = (  -0.3507685   0.6075489   0.0000000), wk =   0.0555556
        k(   13) = (   0.5261528   0.3037744  -0.3987001), wk =   0.0277778
        k(   14) = (   0.0000000   0.0000000   0.1993500), wk =   0.0185185
        k(   15) = (   0.0000000  -0.2025163   0.2658000), wk =   0.0555556
        k(   16) = (   0.0000000   0.8100652  -0.0664500), wk =   0.0555556
        k(   17) = (   0.0000000   0.6075489   0.0000000), wk =   0.0555556
        k(   18) = (   0.0000000   0.4050326   0.0664500), wk =   0.0555556
        k(   19) = (  -0.1753843  -0.1012581   0.3322501), wk =   0.0555556
        k(   20) = (  -0.1753843   0.9113233   0.0000000), wk =   0.1111111
        k(   21) = (  -0.1753843   0.7088070   0.0664500), wk =   0.1111111
        k(   22) = (  -0.1753843   0.5062907   0.1329000), wk =   0.1111111
        k(   23) = (   0.7015370   0.4050326  -0.3322501), wk =   0.0555556
        k(   24) = (   0.7015370   0.2025163  -0.2658000), wk =   0.1111111
        k(   25) = (   0.7015370  -0.0000000  -0.1993500), wk =   0.0555556
        k(   26) = (   0.5261528   0.3037744  -0.1993500), wk =   0.0555556
        k(   27) = (   0.0000000   0.0000000   0.3987001), wk =   0.0185185
        k(   28) = (   0.0000000   1.0125814   0.0664500), wk =   0.0555556
        k(   29) = (   0.0000000   0.8100652   0.1329000), wk =   0.0555556
        k(   30) = (   0.8769213   0.5062907  -0.2658000), wk =   0.0555556
        k(   31) = (   0.8769213   0.3037744  -0.1993500), wk =   0.0555556
        k(   32) = (  -0.0000000   0.0000000  -0.5980501), wk =   0.0092593

                       cryst. coord.
        k(    1) = (   0.0000000   0.0000000   0.0000000), wk =   0.0092593
        k(    2) = (   0.0000000   0.0000000   0.1666667), wk =   0.0555556
        k(    3) = (   0.0000000   0.0000000   0.3333333), wk =   0.0555556
        k(    4) = (  -0.0000000  -0.0000000  -0.5000000), wk =   0.0277778
        k(    5) = (   0.0000000   0.1666667   0.1666667), wk =   0.0555556
        k(    6) = (   0.0000000   0.1666667   0.3333333), wk =   0.1111111
        k(    7) = (   0.0000000   0.1666667  -0.5000000), wk =   0.1111111
        k(    8) = (  -0.0000000   0.1666667  -0.3333333), wk =   0.1111111
        k(    9) = (   0.0000000   0.1666667  -0.1666667), wk =   0.0555556
        k(   10) = (   0.0000000   0.3333333   0.3333333), wk =   0.0555556
        k(   11) = (   0.0000000   0.3333333  -0.5000000), wk =   0.1111111
        k(   12) = (   0.0000000   0.3333333  -0.3333333), wk =   0.0555556
        k(   13) = (  -0.0000000  -0.5000000  -0.5000000), wk =   0.0277778
        k(   14) = (   0.1666667   0.1666667   0.1666667), wk =   0.0185185
        k(   15) = (   0.1666667   0.1666667   0.3333333), wk =   0.0555556
        k(   16) = (   0.1666667   0.1666667  -0.5000000), wk =   0.0555556
        k(   17) = (   0.1666667   0.1666667  -0.3333333), wk =   0.0555556
        k(   18) = (   0.1666667   0.1666667  -0.1666667), wk =   0.0555556
        k(   19) = (   0.1666667   0.3333333   0.3333333), wk =   0.0555556
        k(   20) = (   0.1666667   0.3333333  -0.5000000), wk =   0.1111111
        k(   21) = (   0.1666667   0.3333333  -0.3333333), wk =   0.1111111
        k(   22) = (   0.1666667   0.3333333  -0.1666667), wk =   0.1111111
        k(   23) = (   0.1666667  -0.5000000  -0.5000000), wk =   0.0555556
        k(   24) = (   0.1666667  -0.5000000  -0.3333333), wk =   0.1111111
        k(   25) = (   0.1666667  -0.5000000  -0.1666667), wk =   0.0555556
        k(   26) = (   0.1666667  -0.3333333  -0.3333333), wk =   0.0555556
        k(   27) = (   0.3333333   0.3333333   0.3333333), wk =   0.0185185
        k(   28) = (   0.3333333   0.3333333  -0.5000000), wk =   0.0555556
        k(   29) = (   0.3333333   0.3333333  -0.3333333), wk =   0.0555556
        k(   30) = (   0.3333333  -0.5000000  -0.5000000), wk =   0.0555556
        k(   31) = (   0.3333333  -0.5000000  -0.3333333), wk =   0.0555556
        k(   32) = (  -0.5000000  -0.5000000  -0.5000000), wk =   0.0092593

     Dense  grid:    93865 G-vectors     FFT dimensions: (  72,  72,  72)

     Smooth grid:    43579 G-vectors     FFT dimensions: (  54,  54,  54)

     Dynamical RAM for                 wfc:       2.83 MB

     Dynamical RAM for     wfc (w. buffer):      93.31 MB

     Dynamical RAM for           str. fact:       4.30 MB

     Dynamical RAM for           local pot:       0.00 MB

     Dynamical RAM for          nlocal pot:       8.48 MB

     Dynamical RAM for                qrad:       4.82 MB

     Dynamical RAM for          rho,v,vnew:      12.84 MB

     Dynamical RAM for               rhoin:       4.28 MB

     Dynamical RAM for            rho*nmix:      22.92 MB

     Dynamical RAM for           G-vectors:       5.70 MB

     Dynamical RAM for          h,s,v(r/c):       0.21 MB

     Dynamical RAM for          <psi|beta>:       0.05 MB

     Dynamical RAM for                 psi:       5.65 MB

     Dynamical RAM for                hpsi:       5.65 MB

     Dynamical RAM for                spsi:       5.65 MB

     Dynamical RAM for      wfcinit/wfcrot:       5.68 MB

     Dynamical RAM for           addusdens:     275.00 MB

     Dynamical RAM for          addusforce:     290.06 MB

     Dynamical RAM for         addusstress:     287.89 MB

     Estimated static dynamical RAM per process >     153.69 MB

     Estimated max dynamical RAM per process >     466.67 MB

     Check: negative core charge=   -0.000005

     Initial potential from superposition of free atoms

     starting charge      67.0945, renormalised to      68.0000
     Starting wfcs are   54 randomized atomic wfcs
     Checking if some PAW data can be deallocated... 

     total cpu time spent up to now is        1.1 secs

     per-process dynamical memory:   552.9 Mb

     Self-consistent Calculation
[tb_dev] Currently allocated     1.86E+00 Mbytes, locked:    0 /   3
[tb_pin] Currently allocated     0.00E+00 Mbytes, locked:    0 /   0

     iteration #  1     ecut=    60.00 Ry     beta= 0.70
     Davidson diagonalization with overlap

---- Real-time Memory Report at c_bands before calling an iterative solver
           981 MiB given to the printing process from OS
           539 MiB allocation reported by mallinfo(arena+hblkhd)
       1823559 MiB available memory on the node where the printing process lives
     GPU memory used/free/total (MiB): 2269 / 180372 / 182642
------------------
     ethr =  1.00E-02,  avg # of iterations =  1.3

     total cpu time spent up to now is        1.6 secs

     total energy              =    -934.53138677 Ry
     estimated scf accuracy    <       4.31220448 Ry
[tb_dev] Currently allocated     0.00E+00 Mbytes, locked:    0 /   0
[tb_pin] Currently allocated     0.00E+00 Mbytes, locked:    0 /   0

     iteration #  2     ecut=    60.00 Ry     beta= 0.70
     Davidson diagonalization with overlap

---- Real-time Memory Report at c_bands before calling an iterative solver
          1031 MiB given to the printing process from OS
           614 MiB allocation reported by mallinfo(arena+hblkhd)
       1823212 MiB available memory on the node where the printing process lives
     GPU memory used/free/total (MiB): 2269 / 180372 / 182642
------------------
     ethr =  6.34E-03,  avg # of iterations =  8.2

     total cpu time spent up to now is        2.6 secs

     total energy              =    -934.18051011 Ry
     estimated scf accuracy    <      13.82263495 Ry
[tb_dev] Currently allocated     0.00E+00 Mbytes, locked:    0 /   0
[tb_pin] Currently allocated     0.00E+00 Mbytes, locked:    0 /   0

     iteration #  3     ecut=    60.00 Ry     beta= 0.70
     Davidson diagonalization with overlap

---- Real-time Memory Report at c_bands before calling an iterative solver
          1038 MiB given to the printing process from OS
           618 MiB allocation reported by mallinfo(arena+hblkhd)
       1823597 MiB available memory on the node where the printing process lives
     GPU memory used/free/total (MiB): 2271 / 180370 / 182642
------------------
     ethr =  6.34E-03,  avg # of iterations =  5.5

     total cpu time spent up to now is        3.4 secs

     total energy              =    -936.68731829 Ry
     estimated scf accuracy    <       0.05283265 Ry
[tb_dev] Currently allocated     0.00E+00 Mbytes, locked:    0 /   0
[tb_pin] Currently allocated     0.00E+00 Mbytes, locked:    0 /   0

     iteration #  4     ecut=    60.00 Ry     beta= 0.70
     Davidson diagonalization with overlap

---- Real-time Memory Report at c_bands before calling an iterative solver
          1042 MiB given to the printing process from OS
           619 MiB allocation reported by mallinfo(arena+hblkhd)
       1823422 MiB available memory on the node where the printing process lives
     GPU memory used/free/total (MiB): 2271 / 180370 / 182642
------------------
     ethr =  7.77E-05,  avg # of iterations =  9.3

     total cpu time spent up to now is        4.5 secs

     total energy              =    -936.71162260 Ry
     estimated scf accuracy    <       0.28789617 Ry
[tb_dev] Currently allocated     0.00E+00 Mbytes, locked:    0 /   0
[tb_pin] Currently allocated     0.00E+00 Mbytes, locked:    0 /   0

     iteration #  5     ecut=    60.00 Ry     beta= 0.70
     Davidson diagonalization with overlap

---- Real-time Memory Report at c_bands before calling an iterative solver
          1043 MiB given to the printing process from OS
           621 MiB allocation reported by mallinfo(arena+hblkhd)
       1823795 MiB available memory on the node where the printing process lives
     GPU memory used/free/total (MiB): 2271 / 180370 / 182642
------------------
     ethr =  7.77E-05,  avg # of iterations =  7.5

     total cpu time spent up to now is        5.5 secs

     total energy              =    -936.81192355 Ry
     estimated scf accuracy    <       0.27660471 Ry
[tb_dev] Currently allocated     0.00E+00 Mbytes, locked:    0 /   0
[tb_pin] Currently allocated     0.00E+00 Mbytes, locked:    0 /   0

     iteration #  6     ecut=    60.00 Ry     beta= 0.70
     Davidson diagonalization with overlap

---- Real-time Memory Report at c_bands before calling an iterative solver
          1045 MiB given to the printing process from OS
           623 MiB allocation reported by mallinfo(arena+hblkhd)
       1822948 MiB available memory on the node where the printing process lives
     GPU memory used/free/total (MiB): 2271 / 180370 / 182642
------------------
     ethr =  7.77E-05,  avg # of iterations =  5.1

     total cpu time spent up to now is        6.2 secs

     total energy              =    -936.81410923 Ry
     estimated scf accuracy    <       0.04536861 Ry
[tb_dev] Currently allocated     0.00E+00 Mbytes, locked:    0 /   0
[tb_pin] Currently allocated     0.00E+00 Mbytes, locked:    0 /   0

     iteration #  7     ecut=    60.00 Ry     beta= 0.70
     Davidson diagonalization with overlap

---- Real-time Memory Report at c_bands before calling an iterative solver
          1046 MiB given to the printing process from OS
           625 MiB allocation reported by mallinfo(arena+hblkhd)
       1823040 MiB available memory on the node where the printing process lives
     GPU memory used/free/total (MiB): 2271 / 180370 / 182642
------------------
     ethr =  6.67E-05,  avg # of iterations =  5.0

     total cpu time spent up to now is        6.9 secs

     total energy              =    -936.83689192 Ry
     estimated scf accuracy    <       0.00840279 Ry
[tb_dev] Currently allocated     0.00E+00 Mbytes, locked:    0 /   0
[tb_pin] Currently allocated     0.00E+00 Mbytes, locked:    0 /   0

     iteration #  8     ecut=    60.00 Ry     beta= 0.70
     Davidson diagonalization with overlap

---- Real-time Memory Report at c_bands before calling an iterative solver
          1048 MiB given to the printing process from OS
           626 MiB allocation reported by mallinfo(arena+hblkhd)
       1823048 MiB available memory on the node where the printing process lives
     GPU memory used/free/total (MiB): 2271 / 180370 / 182642
------------------
     ethr =  1.24E-05,  avg # of iterations =  1.4

     total cpu time spent up to now is        7.4 secs

     total energy              =    -936.83509226 Ry
     estimated scf accuracy    <       0.00556704 Ry
[tb_dev] Currently allocated     0.00E+00 Mbytes, locked:    0 /   0
[tb_pin] Currently allocated     0.00E+00 Mbytes, locked:    0 /   0

     iteration #  9     ecut=    60.00 Ry     beta= 0.70
     Davidson diagonalization with overlap

---- Real-time Memory Report at c_bands before calling an iterative solver
          1050 MiB given to the printing process from OS
           628 MiB allocation reported by mallinfo(arena+hblkhd)
       1823403 MiB available memory on the node where the printing process lives
     GPU memory used/free/total (MiB): 2271 / 180370 / 182642
------------------
     ethr =  8.19E-06,  avg # of iterations =  2.4

     total cpu time spent up to now is        7.9 secs

     total energy              =    -936.83542036 Ry
     estimated scf accuracy    <       0.00088356 Ry
[tb_dev] Currently allocated     0.00E+00 Mbytes, locked:    0 /   0
[tb_pin] Currently allocated     0.00E+00 Mbytes, locked:    0 /   0

     iteration # 10     ecut=    60.00 Ry     beta= 0.70
     Davidson diagonalization with overlap

---- Real-time Memory Report at c_bands before calling an iterative solver
          1051 MiB given to the printing process from OS
           629 MiB allocation reported by mallinfo(arena+hblkhd)
       1823372 MiB available memory on the node where the printing process lives
     GPU memory used/free/total (MiB): 2271 / 180370 / 182642
------------------
     ethr =  1.30E-06,  avg # of iterations =  5.2

     total cpu time spent up to now is        8.6 secs

     total energy              =    -936.83583274 Ry
     estimated scf accuracy    <       0.00002147 Ry
[tb_dev] Currently allocated     0.00E+00 Mbytes, locked:    0 /   0
[tb_pin] Currently allocated     0.00E+00 Mbytes, locked:    0 /   0

     iteration # 11     ecut=    60.00 Ry     beta= 0.70
     Davidson diagonalization with overlap

---- Real-time Memory Report at c_bands before calling an iterative solver
          1051 MiB given to the printing process from OS
           629 MiB allocation reported by mallinfo(arena+hblkhd)
       1824410 MiB available memory on the node where the printing process lives
     GPU memory used/free/total (MiB): 2271 / 180370 / 182642
------------------
     ethr =  3.16E-08,  avg # of iterations =  6.0

     total cpu time spent up to now is        9.4 secs

     total energy              =    -936.83585057 Ry
     estimated scf accuracy    <       0.00001141 Ry
[tb_dev] Currently allocated     0.00E+00 Mbytes, locked:    0 /   0
[tb_pin] Currently allocated     0.00E+00 Mbytes, locked:    0 /   0

     iteration # 12     ecut=    60.00 Ry     beta= 0.70
     Davidson diagonalization with overlap

---- Real-time Memory Report at c_bands before calling an iterative solver
          1051 MiB given to the printing process from OS
           629 MiB allocation reported by mallinfo(arena+hblkhd)
       1823136 MiB available memory on the node where the printing process lives
     GPU memory used/free/total (MiB): 2271 / 180370 / 182642
------------------
     ethr =  1.68E-08,  avg # of iterations =  2.2

     total cpu time spent up to now is        9.9 secs

     total energy              =    -936.83584954 Ry
     estimated scf accuracy    <       0.00000475 Ry
[tb_dev] Currently allocated     0.00E+00 Mbytes, locked:    0 /   0
[tb_pin] Currently allocated     0.00E+00 Mbytes, locked:    0 /   0

     iteration # 13     ecut=    60.00 Ry     beta= 0.70
     Davidson diagonalization with overlap

---- Real-time Memory Report at c_bands before calling an iterative solver
          1051 MiB given to the printing process from OS
           629 MiB allocation reported by mallinfo(arena+hblkhd)
       1822676 MiB available memory on the node where the printing process lives
     GPU memory used/free/total (MiB): 2271 / 180370 / 182642
------------------
     ethr =  6.98E-09,  avg # of iterations =  4.9

     total cpu time spent up to now is       10.6 secs

     total energy              =    -936.83585130 Ry
     estimated scf accuracy    <       0.00000002 Ry
[tb_dev] Currently allocated     0.00E+00 Mbytes, locked:    0 /   0
[tb_pin] Currently allocated     0.00E+00 Mbytes, locked:    0 /   0

     iteration # 14     ecut=    60.00 Ry     beta= 0.70
     Davidson diagonalization with overlap

---- Real-time Memory Report at c_bands before calling an iterative solver
          1051 MiB given to the printing process from OS
           629 MiB allocation reported by mallinfo(arena+hblkhd)
       1822505 MiB available memory on the node where the printing process lives
     GPU memory used/free/total (MiB): 2271 / 180370 / 182642
------------------
     ethr =  2.77E-11,  avg # of iterations = 11.2

     total cpu time spent up to now is       11.9 secs

     total energy              =    -936.83585133 Ry
     estimated scf accuracy    <       0.00000029 Ry
[tb_dev] Currently allocated     0.00E+00 Mbytes, locked:    0 /   0
[tb_pin] Currently allocated     0.00E+00 Mbytes, locked:    0 /   0

     iteration # 15     ecut=    60.00 Ry     beta= 0.70
     Davidson diagonalization with overlap

---- Real-time Memory Report at c_bands before calling an iterative solver
          1051 MiB given to the printing process from OS
           629 MiB allocation reported by mallinfo(arena+hblkhd)
       1823691 MiB available memory on the node where the printing process lives
     GPU memory used/free/total (MiB): 2271 / 180370 / 182642
------------------
     ethr =  2.77E-11,  avg # of iterations =  6.4

     total cpu time spent up to now is       12.8 secs

     total energy              =    -936.83585136 Ry
     estimated scf accuracy    <       0.00000001 Ry
[tb_dev] Currently allocated     0.00E+00 Mbytes, locked:    0 /   0
[tb_pin] Currently allocated     0.00E+00 Mbytes, locked:    0 /   0

     iteration # 16     ecut=    60.00 Ry     beta= 0.70
     Davidson diagonalization with overlap

---- Real-time Memory Report at c_bands before calling an iterative solver
          1051 MiB given to the printing process from OS
           629 MiB allocation reported by mallinfo(arena+hblkhd)
       1825618 MiB available memory on the node where the printing process lives
     GPU memory used/free/total (MiB): 2271 / 180370 / 182642
------------------
     ethr =  1.74E-11,  avg # of iterations =  1.0

     total cpu time spent up to now is       13.2 secs

     total energy              =    -936.83585136 Ry
     estimated scf accuracy    <       0.00000001 Ry
[tb_dev] Currently allocated     0.00E+00 Mbytes, locked:    0 /   0
[tb_pin] Currently allocated     0.00E+00 Mbytes, locked:    0 /   0

     iteration # 17     ecut=    60.00 Ry     beta= 0.70
     Davidson diagonalization with overlap

---- Real-time Memory Report at c_bands before calling an iterative solver
          1051 MiB given to the printing process from OS
           629 MiB allocation reported by mallinfo(arena+hblkhd)
       1824354 MiB available memory on the node where the printing process lives
     GPU memory used/free/total (MiB): 2271 / 180370 / 182642
------------------
     ethr =  1.74E-11,  avg # of iterations =  4.7

     total cpu time spent up to now is       13.8 secs

     total energy              =    -936.83585136 Ry
     estimated scf accuracy    <          5.5E-10 Ry
[tb_dev] Currently allocated     0.00E+00 Mbytes, locked:    0 /   0
[tb_pin] Currently allocated     0.00E+00 Mbytes, locked:    0 /   0

     iteration # 18     ecut=    60.00 Ry     beta= 0.70
     Davidson diagonalization with overlap

---- Real-time Memory Report at c_bands before calling an iterative solver
          1051 MiB given to the printing process from OS
           619 MiB allocation reported by mallinfo(arena+hblkhd)
       1824019 MiB available memory on the node where the printing process lives
     GPU memory used/free/total (MiB): 2271 / 180370 / 182642
------------------
     ethr =  8.06E-13,  avg # of iterations =  6.0

     total cpu time spent up to now is       14.6 secs

     total energy              =    -936.83585136 Ry
     estimated scf accuracy    <          7.2E-11 Ry
[tb_dev] Currently allocated     0.00E+00 Mbytes, locked:    0 /   0
[tb_pin] Currently allocated     0.00E+00 Mbytes, locked:    0 /   0

     iteration # 19     ecut=    60.00 Ry     beta= 0.70
     Davidson diagonalization with overlap

---- Real-time Memory Report at c_bands before calling an iterative solver
          1051 MiB given to the printing process from OS
           629 MiB allocation reported by mallinfo(arena+hblkhd)
       1824370 MiB available memory on the node where the printing process lives
     GPU memory used/free/total (MiB): 2271 / 180370 / 182642
------------------
     ethr =  1.07E-13,  avg # of iterations =  5.1

     total cpu time spent up to now is       15.3 secs

     total energy              =    -936.83585136 Ry
     estimated scf accuracy    <          2.3E-11 Ry
[tb_dev] Currently allocated     0.00E+00 Mbytes, locked:    0 /   0
[tb_pin] Currently allocated     0.00E+00 Mbytes, locked:    0 /   0

     iteration # 20     ecut=    60.00 Ry     beta= 0.70
     Davidson diagonalization with overlap

---- Real-time Memory Report at c_bands before calling an iterative solver
          1051 MiB given to the printing process from OS
           629 MiB allocation reported by mallinfo(arena+hblkhd)
       1824692 MiB available memory on the node where the printing process lives
     GPU memory used/free/total (MiB): 2271 / 180370 / 182642
------------------
     ethr =  1.00E-13,  avg # of iterations =  3.7

     total cpu time spent up to now is       15.9 secs

     total energy              =    -936.83585136 Ry
     estimated scf accuracy    <          2.0E-12 Ry
[tb_dev] Currently allocated     0.00E+00 Mbytes, locked:    0 /   0
[tb_pin] Currently allocated     0.00E+00 Mbytes, locked:    0 /   0

     iteration # 21     ecut=    60.00 Ry     beta= 0.70
     Davidson diagonalization with overlap

---- Real-time Memory Report at c_bands before calling an iterative solver
          1051 MiB given to the printing process from OS
           629 MiB allocation reported by mallinfo(arena+hblkhd)
       1824728 MiB available memory on the node where the printing process lives
     GPU memory used/free/total (MiB): 2271 / 180370 / 182642
------------------
     ethr =  1.00E-13,  avg # of iterations =  1.0

     total cpu time spent up to now is       16.3 secs

     total energy              =    -936.83585136 Ry
     estimated scf accuracy    <          5.1E-12 Ry
[tb_dev] Currently allocated     0.00E+00 Mbytes, locked:    0 /   0
[tb_pin] Currently allocated     0.00E+00 Mbytes, locked:    0 /   0

     iteration # 22     ecut=    60.00 Ry     beta= 0.70
     Davidson diagonalization with overlap

---- Real-time Memory Report at c_bands before calling an iterative solver
          1051 MiB given to the printing process from OS
           629 MiB allocation reported by mallinfo(arena+hblkhd)
       1824721 MiB available memory on the node where the printing process lives
     GPU memory used/free/total (MiB): 2271 / 180370 / 182642
------------------
     ethr =  1.00E-13,  avg # of iterations =  1.0

     total cpu time spent up to now is       16.7 secs

     total energy              =    -936.83585136 Ry
     estimated scf accuracy    <          6.7E-12 Ry
[tb_dev] Currently allocated     0.00E+00 Mbytes, locked:    0 /   0
[tb_pin] Currently allocated     0.00E+00 Mbytes, locked:    0 /   0

     iteration # 23     ecut=    60.00 Ry     beta= 0.70
     Davidson diagonalization with overlap

---- Real-time Memory Report at c_bands before calling an iterative solver
          1051 MiB given to the printing process from OS
           629 MiB allocation reported by mallinfo(arena+hblkhd)
       1825022 MiB available memory on the node where the printing process lives
     GPU memory used/free/total (MiB): 2271 / 180370 / 182642
------------------
     ethr =  1.00E-13,  avg # of iterations =  1.0

     total cpu time spent up to now is       17.1 secs

     total energy              =    -936.83585136 Ry
     estimated scf accuracy    <          4.8E-12 Ry
[tb_dev] Currently allocated     0.00E+00 Mbytes, locked:    0 /   0
[tb_pin] Currently allocated     0.00E+00 Mbytes, locked:    0 /   0

     iteration # 24     ecut=    60.00 Ry     beta= 0.70
     Davidson diagonalization with overlap

---- Real-time Memory Report at c_bands before calling an iterative solver
          1051 MiB given to the printing process from OS
           629 MiB allocation reported by mallinfo(arena+hblkhd)
       1824337 MiB available memory on the node where the printing process lives
     GPU memory used/free/total (MiB): 2271 / 180370 / 182642
------------------
     ethr =  1.00E-13,  avg # of iterations =  1.0

     total cpu time spent up to now is       17.5 secs

     End of self-consistent calculation

          k = 0.0000 0.0000 0.0000 (  5439 PWs)   bands (ev):

   -46.3425 -46.3238 -34.2165 -34.2130 -22.7558 -22.7558 -22.6775 -22.5663
   -22.5663 -22.4635  -9.4063  -8.7273  -8.7273  -7.6311  -7.4464  -7.4464
     2.9739   2.9739   3.1560   3.2031   3.2031   4.2619   5.4856   5.4903
     5.4903   6.2715   6.8317   6.8317   6.9412   6.9412   7.0222   7.1433
     7.5757   7.5757

     occupation numbers 
     1.0000   1.0000   1.0000   1.0000   1.0000   1.0000   1.0000   1.0000
     1.0000   1.0000   1.0000   1.0000   1.0000   1.0000   1.0000   1.0000
     1.0000   1.0000   1.0000   1.0000   1.0000   1.0000   1.0000   1.0000
     1.0000   1.0000   1.0000   1.0000   1.0000   1.0000   1.0000   1.0000
     1.0000   1.0000

          k = 0.0000-0.2025 0.0665 (  5452 PWs)   bands (ev):

   -46.3412 -46.3250 -34.2163 -34.2132 -22.7454 -22.7438 -22.6629 -22.5810
   -22.5797 -22.4778  -9.2877  -8.6578  -8.6541  -7.7211  -7.5674  -7.5468
     2.9121   3.0057   3.2901   3.4991   3.5166   4.3076   5.1346   5.2349
     5.2970   6.2683   6.5543   6.8085   6.8134   7.0954   7.1470   7.2346
     7.4385   7.5141

     occupation numbers 
     1.0000   1.0000   1.0000   1.0000   1.0000   1.0000   1.0000   1.0000
     1.0000   1.0000   1.0000   1.0000   1.0000   1.0000   1.0000   1.0000
     1.0000   1.0000   1.0000   1.0000   1.0000   1.0000   1.0000   1.0000
     1.0000   1.0000   1.0000   1.0000   1.0000   1.0000   1.0000   1.0000
     1.0000   1.0000

          k = 0.0000-0.4050 0.1329 (  5459 PWs)   bands (ev):

   -46.3378 -46.3284 -34.2157 -34.2139 -22.7150 -22.7106 -22.6237 -22.6198
   -22.6157 -22.5169  -8.9601  -8.4707  -8.4519  -7.9997  -7.8488  -7.8031
     3.0795   3.2342   3.5970   4.0714   4.0935   4.3956   4.4123   4.8118
     5.0177   5.7773   6.0738   6.3955   7.0107   7.1489   7.1541   7.2807
     7.4018   7.5342

     occupation numbers 
     1.0000   1.0000   1.0000   1.0000   1.0000   1.0000   1.0000   1.0000
     1.0000   1.0000   1.0000   1.0000   1.0000   1.0000   1.0000   1.0000
     1.0000   1.0000   1.0000   1.0000   1.0000   1.0000   1.0000   1.0000
     1.0000   1.0000   1.0000   1.0000   1.0000   1.0000   1.0000   1.0000
     1.0000   1.0000

          k =-0.0000 0.6075-0.1994 (  5460 PWs)   bands (ev):

   -46.3331 -46.3331 -34.2148 -34.2148 -22.6695 -22.6695 -22.6640 -22.6640
   -22.5701 -22.5701  -8.5200  -8.5200  -8.1864  -8.1864  -8.0855  -8.0855
     3.4698   3.4698   3.7318   3.7318   4.2906   4.2906   4.7750   4.7750
     5.2246   5.2246   5.7034   5.7034   7.1937   7.1937   7.3216   7.3216
     7.3962   7.3962

     occupation numbers 
     1.0000   1.0000   1.0000   1.0000   1.0000   1.0000   1.0000   1.0000
     1.0000   1.0000   1.0000   1.0000   1.0000   1.0000   1.0000   1.0000
     1.0000   1.0000   1.0000   1.0000   1.0000   1.0000   1.0000   1.0000
     1.0000   1.0000   1.0000   1.0000   1.0000   1.0000   1.0000   1.0000
     1.0000   1.0000

          k =-0.1754-0.1013 0.1329 (  5445 PWs)   bands (ev):

   -46.3409 -46.3253 -34.2162 -34.2133 -22.7591 -22.7337 -22.6498 -22.6092
   -22.5639 -22.4754  -9.2798  -8.7044  -8.5456  -7.8588  -7.5621  -7.4884
     2.9678   3.0129   3.1828   3.5019   3.6474   4.4620   4.7389   5.4217
     5.4764   6.2672   6.4736   6.6711   6.8901   6.9011   7.0630   7.2157
     7.4753   7.5242

     occupation numbers 
     1.0000   1.0000   1.0000   1.0000   1.0000   1.0000   1.0000   1.0000
     1.0000   1.0000   1.0000   1.0000   1.0000   1.0000   1.0000   1.0000
     1.0000   1.0000   1.0000   1.0000   1.0000   1.0000   1.0000   1.0000
     1.0000   1.0000   1.0000   1.0000   1.0000   1.0000   1.0000   1.0000
     1.0000   1.0000

          k =-0.1754-0.3038 0.1994 (  5460 PWs)   bands (ev):

   -46.3385 -46.3277 -34.2158 -34.2138 -22.7506 -22.7143 -22.6582 -22.6055
   -22.5764 -22.4932  -9.0897  -8.6147  -8.3230  -8.1492  -7.6838  -7.6312
     2.8985   3.1799   3.5669   3.7820   3.9616   4.2087   4.7725   4.9976
     5.3830   5.9358   6.3060   6.6112   6.7443   6.8830   7.0272   7.2588
     7.3725   7.5224

     occupation numbers 
     1.0000   1.0000   1.0000   1.0000   1.0000   1.0000   1.0000   1.0000
     1.0000   1.0000   1.0000   1.0000   1.0000   1.0000   1.0000   1.0000
     1.0000   1.0000   1.0000   1.0000   1.0000   1.0000   1.0000   1.0000
     1.0000   1.0000   1.0000   1.0000   1.0000   1.0000   1.0000   1.0000
     1.0000   1.0000

          k =-0.1754 0.7088-0.1329 (  5449 PWs)   bands (ev):

   -46.3346 -46.3315 -34.2151 -34.2145 -22.7199 -22.7068 -22.6772 -22.6137
   -22.5547 -22.5324  -8.7495  -8.5454  -8.4055  -7.9801  -7.9665  -7.8928
     3.0899   3.3388   3.5852   4.0216   4.2520   4.3470   4.5965   4.8547
     5.0996   5.5677   6.0096   6.3301   6.8036   7.0541   7.0932   7.1858
     7.3830   7.4846

     occupation numbers 
     1.0000   1.0000   1.0000   1.0000   1.0000   1.0000   1.0000   1.0000
     1.0000   1.0000   1.0000   1.0000   1.0000   1.0000   1.0000   1.0000
     1.0000   1.0000   1.0000   1.0000   1.0000   1.0000   1.0000   1.0000
     1.0000   1.0000   1.0000   1.0000   1.0000   1.0000   1.0000   1.0000
     1.0000   1.0000

          k =-0.1754 0.5063-0.0665 (  5464 PWs)   bands (ev):

   -46.3358 -46.3304 -34.2154 -34.2143 -22.7403 -22.6728 -22.6633 -22.6296
   -22.5842 -22.5141  -8.8700  -8.3914  -8.2981  -8.1797  -8.0943  -7.7009
     3.0384   3.4724   3.6140   3.7514   3.9819   4.4308   4.7257   4.9299
     5.2049   5.6369   5.8989   6.5748   6.7135   6.8825   7.1469   7.3253
     7.3791   7.5135

     occupation numbers 
     1.0000   1.0000   1.0000   1.0000   1.0000   1.0000   1.0000   1.0000
     1.0000   1.0000   1.0000   1.0000   1.0000   1.0000   1.0000   1.0000
     1.0000   1.0000   1.0000   1.0000   1.0000   1.0000   1.0000   1.0000
     1.0000   1.0000   1.0000   1.0000   1.0000   1.0000   1.0000   1.0000
     1.0000   1.0000

          k =-0.1754 0.3038 0.0000 (  5464 PWs)   bands (ev):

   -46.3393 -46.3269 -34.2160 -34.2136 -22.7513 -22.7109 -22.6343 -22.6212
   -22.5892 -22.4904  -9.1329  -8.5910  -8.4782  -7.9190  -7.8087  -7.5523
     2.9379   3.1324   3.4500   3.5384   4.0816   4.4008   4.5494   4.8680
     5.4963   6.1300   6.4036   6.5955   6.8499   6.9681   7.1306   7.2736
     7.3347   7.5602

     occupation numbers 
     1.0000   1.0000   1.0000   1.0000   1.0000   1.0000   1.0000   1.0000
     1.0000   1.0000   1.0000   1.0000   1.0000   1.0000   1.0000   1.0000
     1.0000   1.0000   1.0000   1.0000   1.0000   1.0000   1.0000   1.0000
     1.0000   1.0000   1.0000   1.0000   1.0000   1.0000   1.0000   1.0000
     1.0000   1.0000

          k =-0.3508-0.2025 0.2658 (  5453 PWs)   bands (ev):

   -46.3377 -46.3284 -34.2157 -34.2139 -22.7659 -22.7244 -22.7098 -22.5602
   -22.5559 -22.4813  -9.1053  -8.6578  -8.4297  -8.0562  -7.6235  -7.5767
     2.9146   3.0355   3.3300   3.4759   4.0609   4.3900   5.0829   5.3036
     5.7607   5.9910   6.2355   6.4525   6.5391   6.8525   6.8706   7.1654
     7.1930   7.4305

     occupation numbers 
     1.0000   1.0000   1.0000   1.0000   1.0000   1.0000   1.0000   1.0000
     1.0000   1.0000   1.0000   1.0000   1.0000   1.0000   1.0000   1.0000
     1.0000   1.0000   1.0000   1.0000   1.0000   1.0000   1.0000   1.0000
     1.0000   1.0000   1.0000   1.0000   1.0000   1.0000   1.0000   1.0000
     1.0000   1.0000

          k =-0.3508 0.8101-0.0665 (  5460 PWs)   bands (ev):

   -46.3358 -46.3304 -34.2154 -34.2143 -22.7564 -22.7464 -22.7109 -22.5723
   -22.5187 -22.4954  -8.9602  -8.6623  -8.5670  -7.8233  -7.7372  -7.7002
     2.8551   3.0369   3.2548   3.6013   4.3045   4.6725   4.8726   5.3168
     5.5598   5.9613   6.2132   6.3666   6.5246   6.7093   6.8998   7.0323
     7.2289   7.4639

     occupation numbers 
     1.0000   1.0000   1.0000   1.0000   1.0000   1.0000   1.0000   1.0000
     1.0000   1.0000   1.0000   1.0000   1.0000   1.0000   1.0000   1.0000
     1.0000   1.0000   1.0000   1.0000   1.0000   1.0000   1.0000   1.0000
     1.0000   1.0000   1.0000   1.0000   1.0000   1.0000   1.0000   1.0000
     1.0000   1.0000

          k =-0.3508 0.6075 0.0000 (  5448 PWs)   bands (ev):

   -46.3331 -46.3331 -34.2149 -34.2149 -22.7571 -22.7228 -22.6743 -22.6112
   -22.5335 -22.5046  -8.8050  -8.6783  -8.3799  -8.0200  -7.9242  -7.6853
     2.9037   3.0997   3.5643   3.8924   4.2235   4.3231   4.7849   5.1969
     5.4467   5.7575   6.0818   6.2944   6.7014   6.7613   6.9345   7.1992
     7.2650   7.4991

     occupation numbers 
     1.0000   1.0000   1.0000   1.0000   1.0000   1.0000   1.0000   1.0000
     1.0000   1.0000   1.0000   1.0000   1.0000   1.0000   1.0000   1.0000
     1.0000   1.0000   1.0000   1.0000   1.0000   1.0000   1.0000   1.0000
     1.0000   1.0000   1.0000   1.0000   1.0000   1.0000   1.0000   1.0000
     1.0000   1.0000

          k = 0.5262 0.3038-0.3987 (  5448 PWs)   bands (ev):

   -46.3362 -46.3299 -34.2155 -34.2142 -22.7696 -22.7613 -22.7249 -22.5567
   -22.5041 -22.4813  -9.0388  -8.7130  -8.6207  -7.7629  -7.6485  -7.6207
     2.8889   2.9055   3.0236   3.2749   4.6345   4.9016   5.1506   5.5221
     5.6343   5.7551   6.1794   6.2687   6.5248   6.6462   6.9494   6.9588
     7.1553   7.3843

     occupation numbers 
     1.0000   1.0000   1.0000   1.0000   1.0000   1.0000   1.0000   1.0000
     1.0000   1.0000   1.0000   1.0000   1.0000   1.0000   1.0000   1.0000
     1.0000   1.0000   1.0000   1.0000   1.0000   1.0000   1.0000   1.0000
     1.0000   1.0000   1.0000   1.0000   1.0000   1.0000   1.0000   1.0000
     1.0000   1.0000

          k = 0.0000 0.0000 0.1994 (  5436 PWs)   bands (ev):

   -46.3412 -46.3250 -34.2162 -34.2132 -22.7436 -22.7436 -22.6642 -22.5795
   -22.5795 -22.4790  -9.2990  -8.6498  -8.6498  -7.7649  -7.5428  -7.5428
     3.0655   3.0655   3.3109   3.4398   3.4398   4.3624   5.2549   5.2744
     5.2744   6.3883   6.4655   6.4655   6.7416   6.9415   6.9415   7.1960
     7.6003   7.6003

     occupation numbers 
     1.0000   1.0000   1.0000   1.0000   1.0000   1.0000   1.0000   1.0000
     1.0000   1.0000   1.0000   1.0000   1.0000   1.0000   1.0000   1.0000
     1.0000   1.0000   1.0000   1.0000   1.0000   1.0000   1.0000   1.0000
     1.0000   1.0000   1.0000   1.0000   1.0000   1.0000   1.0000   1.0000
     1.0000   1.0000

          k = 0.0000-0.2025 0.2658 (  5449 PWs)   bands (ev):

   -46.3393 -46.3269 -34.2159 -34.2136 -22.7516 -22.7071 -22.6366 -22.6182
   -22.5904 -22.4914  -9.1493  -8.5781  -8.4735  -7.9800  -7.7649  -7.5572
     2.9784   3.1854   3.5190   3.7626   3.9346   4.4965   4.7461   4.8662
     5.2760   5.8679   6.2922   6.5671   6.6197   6.9694   7.1202   7.1825
     7.4716   7.5348

     occupation numbers 
     1.0000   1.0000   1.0000   1.0000   1.0000   1.0000   1.0000   1.0000
     1.0000   1.0000   1.0000   1.0000   1.0000   1.0000   1.0000   1.0000
     1.0000   1.0000   1.0000   1.0000   1.0000   1.0000   1.0000   1.0000
     1.0000   1.0000   1.0000   1.0000   1.0000   1.0000   1.0000   1.0000
     1.0000   1.0000

          k = 0.0000 0.8101-0.0665 (  5453 PWs)   bands (ev):

   -46.3358 -46.3304 -34.2153 -34.2143 -22.7415 -22.6688 -22.6588 -22.6330
   -22.5868 -22.5141  -8.8759  -8.3801  -8.3553  -8.1650  -8.0550  -7.7171
     2.9912   3.4041   3.8946   4.0091   4.1688   4.4279   4.4696   4.9322
     5.1306   5.2495   5.9421   6.4836   6.8114   6.8983   7.1797   7.2283
     7.3719   7.4255

     occupation numbers 
     1.0000   1.0000   1.0000   1.0000   1.0000   1.0000   1.0000   1.0000
     1.0000   1.0000   1.0000   1.0000   1.0000   1.0000   1.0000   1.0000
     1.0000   1.0000   1.0000   1.0000   1.0000   1.0000   1.0000   1.0000
     1.0000   1.0000   1.0000   1.0000   1.0000   1.0000   1.0000   1.0000
     1.0000   1.0000

          k = 0.0000 0.6075 0.0000 (  5452 PWs)   bands (ev):

   -46.3346 -46.3315 -34.2152 -34.2145 -22.7170 -22.7083 -22.6811 -22.6106
   -22.5541 -22.5338  -8.7540  -8.5451  -8.3950  -7.9968  -7.9693  -7.8795
     3.2475   3.3856   3.4875   3.6824   4.1326   4.4313   4.7457   4.9853
     5.3057   5.5428   5.9897   6.1929   6.7870   7.0262   7.0835   7.2400
     7.2823   7.5066

     occupation numbers 
     1.0000   1.0000   1.0000   1.0000   1.0000   1.0000   1.0000   1.0000
     1.0000   1.0000   1.0000   1.0000   1.0000   1.0000   1.0000   1.0000
     1.0000   1.0000   1.0000   1.0000   1.0000   1.0000   1.0000   1.0000
     1.0000   1.0000   1.0000   1.0000   1.0000   1.0000   1.0000   1.0000
     1.0000   1.0000

          k = 0.0000 0.4050 0.0665 (  5447 PWs)   bands (ev):

   -46.3385 -46.3277 -34.2159 -34.2138 -22.7496 -22.7164 -22.6592 -22.6048
   -22.5755 -22.4933  -9.0848  -8.6225  -8.3036  -8.1594  -7.6939  -7.6202
     3.0335   3.1615   3.2442   3.8981   3.9080   4.1240   4.7775   5.1411
     5.3840   6.1461   6.3452   6.6102   6.7163   6.8373   7.0172   7.2529
     7.3608   7.5282

     occupation numbers 
     1.0000   1.0000   1.0000   1.0000   1.0000   1.0000   1.0000   1.0000
     1.0000   1.0000   1.0000   1.0000   1.0000   1.0000   1.0000   1.0000
     1.0000   1.0000   1.0000   1.0000   1.0000   1.0000   1.0000   1.0000
     1.0000   1.0000   1.0000   1.0000   1.0000   1.0000   1.0000   1.0000
     1.0000   1.0000

          k =-0.1754-0.1013 0.3323 (  5444 PWs)   bands (ev):

   -46.3385 -46.3277 -34.2158 -34.2138 -22.7492 -22.7137 -22.6572 -22.6065
   -22.5751 -22.4946  -9.1068  -8.6038  -8.2971  -8.1929  -7.7004  -7.6115
     3.1045   3.1714   3.5761   3.8802   3.8956   4.2318   4.8267   5.1568
     5.2681   5.8939   6.1065   6.5850   6.6136   6.7323   6.8619   7.2345
     7.4012   7.5230

     occupation numbers 
     1.0000   1.0000   1.0000   1.0000   1.0000   1.0000   1.0000   1.0000
     1.0000   1.0000   1.0000   1.0000   1.0000   1.0000   1.0000   1.0000
     1.0000   1.0000   1.0000   1.0000   1.0000   1.0000   1.0000   1.0000
     1.0000   1.0000   1.0000   1.0000   1.0000   1.0000   1.0000   1.0000
     1.0000   1.0000

          k =-0.1754 0.9113 0.0000 (  5446 PWs)   bands (ev):

   -46.3362 -46.3300 -34.2154 -34.2142 -22.7555 -22.7078 -22.6867 -22.5950
   -22.5566 -22.4985  -8.9701  -8.5066  -8.4794  -8.0204  -7.9036  -7.6308
     2.9585   3.2611   3.5554   3.9829   4.0589   4.4462   4.6423   5.1335
     5.3974   5.7483   6.1444   6.3422   6.5862   6.7218   6.9346   7.1461
     7.2973   7.4217

     occupation numbers 
     1.0000   1.0000   1.0000   1.0000   1.0000   1.0000   1.0000   1.0000
     1.0000   1.0000   1.0000   1.0000   1.0000   1.0000   1.0000   1.0000
     1.0000   1.0000   1.0000   1.0000   1.0000   1.0000   1.0000   1.0000
     1.0000   1.0000   1.0000   1.0000   1.0000   1.0000   1.0000   1.0000
     1.0000   1.0000

          k =-0.1754 0.7088 0.0665 (  5448 PWs)   bands (ev):

   -46.3331 -46.3331 -34.2149 -34.2148 -22.7448 -22.7434 -22.6416 -22.6394
   -22.5173 -22.5165  -8.7663  -8.7504  -8.2807  -8.1691  -7.7760  -7.7572
     2.9782   3.1111   3.5198   3.7913   4.2774   4.6711   4.7189   5.0082
     5.3703   5.7500   6.2518   6.3727   6.4425   6.7370   6.9478   7.1179
     7.2989   7.4256

     occupation numbers 
     1.0000   1.0000   1.0000   1.0000   1.0000   1.0000   1.0000   1.0000
     1.0000   1.0000   1.0000   1.0000   1.0000   1.0000   1.0000   1.0000
     1.0000   1.0000   1.0000   1.0000   1.0000   1.0000   1.0000   1.0000
     1.0000   1.0000   1.0000   1.0000   1.0000   1.0000   1.0000   1.0000
     1.0000   1.0000

          k =-0.1754 0.5063 0.1329 (  5459 PWs)   bands (ev):

   -46.3362 -46.3300 -34.2155 -34.2142 -22.7555 -22.7093 -22.6890 -22.5948
   -22.5555 -22.4979  -8.9569  -8.5152  -8.4633  -8.0196  -7.9122  -7.6226
     2.9174   3.2679   3.4020   3.6981   4.0615   4.4784   4.6561   5.2764
     5.4160   5.9741   6.0931   6.4100   6.7092   6.8808   6.9651   7.0934
     7.2869   7.5111

     occupation numbers 
     1.0000   1.0000   1.0000   1.0000   1.0000   1.0000   1.0000   1.0000
     1.0000   1.0000   1.0000   1.0000   1.0000   1.0000   1.0000   1.0000
     1.0000   1.0000   1.0000   1.0000   1.0000   1.0000   1.0000   1.0000
     1.0000   1.0000   1.0000   1.0000   1.0000   1.0000   1.0000   1.0000
     1.0000   1.0000

          k = 0.7015 0.4050-0.3323 (  5446 PWs)   bands (ev):

   -46.3358 -46.3304 -34.2154 -34.2143 -22.7552 -22.7460 -22.7113 -22.5710
   -22.5190 -22.4964  -8.9719  -8.6688  -8.5564  -7.8271  -7.7522  -7.6878
     3.0478   3.1113   3.1360   3.5475   4.4133   4.5930   4.9742   5.2736
     5.7454   5.8446   6.1964   6.2457   6.5347   6.6610   6.8297   6.9045
     7.0964   7.4546

     occupation numbers 
     1.0000   1.0000   1.0000   1.0000   1.0000   1.0000   1.0000   1.0000
     1.0000   1.0000   1.0000   1.0000   1.0000   1.0000   1.0000   1.0000
     1.0000   1.0000   1.0000   1.0000   1.0000   1.0000   1.0000   1.0000
     1.0000   1.0000   1.0000   1.0000   1.0000   1.0000   1.0000   1.0000
     1.0000   1.0000

          k = 0.7015 0.2025-0.2658 (  5454 PWs)   bands (ev):

   -46.3346 -46.3315 -34.2152 -34.2145 -22.7600 -22.7578 -22.6871 -22.5930
   -22.5045 -22.4983  -8.8994  -8.7559  -8.4620  -7.9499  -7.7253  -7.6621
     2.8990   2.9314   3.2833   3.8136   4.1066   4.8778   5.0277   5.2299
     5.6979   5.8442   6.0699   6.2017   6.4815   6.6599   6.9272   7.0273
     7.1598   7.4474

     occupation numbers 
     1.0000   1.0000   1.0000   1.0000   1.0000   1.0000   1.0000   1.0000
     1.0000   1.0000   1.0000   1.0000   1.0000   1.0000   1.0000   1.0000
     1.0000   1.0000   1.0000   1.0000   1.0000   1.0000   1.0000   1.0000
     1.0000   1.0000   1.0000   1.0000   1.0000   1.0000   1.0000   1.0000
     1.0000   1.0000

          k = 0.7015-0.0000-0.1994 (  5462 PWs)   bands (ev):

   -46.3331 -46.3331 -34.2149 -34.2149 -22.7443 -22.7443 -22.6410 -22.6410
   -22.5165 -22.5165  -8.7548  -8.7548  -8.2293  -8.2293  -7.7623  -7.7623
     2.9947   2.9947   3.6715   3.6715   4.4013   4.4013   4.8951   4.8951
     5.5459   5.5459   6.3291   6.3291   6.6791   6.6791   7.0457   7.0457
     7.4001   7.4001

     occupation numbers 
     1.0000   1.0000   1.0000   1.0000   1.0000   1.0000   1.0000   1.0000
     1.0000   1.0000   1.0000   1.0000   1.0000   1.0000   1.0000   1.0000
     1.0000   1.0000   1.0000   1.0000   1.0000   1.0000   1.0000   1.0000
     1.0000   1.0000   1.0000   1.0000   1.0000   1.0000   1.0000   1.0000
     1.0000   1.0000

          k = 0.5262 0.3038-0.1994 (  5456 PWs)   bands (ev):

   -46.3358 -46.3304 -34.2154 -34.2143 -22.7555 -22.7467 -22.7121 -22.5712
   -22.5186 -22.4960  -8.9619  -8.6652  -8.5605  -7.8290  -7.7415  -7.6920
     2.9712   3.1058   3.1337   3.4081   4.3635   4.6995   4.9865   5.2337
     5.6949   5.8323   6.2871   6.5213   6.5673   6.6291   6.8843   6.9424
     7.0863   7.4785

     occupation numbers 
     1.0000   1.0000   1.0000   1.0000   1.0000   1.0000   1.0000   1.0000
     1.0000   1.0000   1.0000   1.0000   1.0000   1.0000   1.0000   1.0000
     1.0000   1.0000   1.0000   1.0000   1.0000   1.0000   1.0000   1.0000
     1.0000   1.0000   1.0000   1.0000   1.0000   1.0000   1.0000   1.0000
     1.0000   1.0000

          k = 0.0000 0.0000 0.3987 (  5463 PWs)   bands (ev):

   -46.3378 -46.3285 -34.2157 -34.2139 -22.7099 -22.7099 -22.6272 -22.6152
   -22.6152 -22.5203  -8.9988  -8.4333  -8.4333  -8.1169  -7.7966  -7.7966
     3.4068   3.4068   3.7059   4.0284   4.0284   4.6849   4.6849   4.7053
     4.7521   5.7229   5.7229   6.0908   6.6724   7.0257   7.0257   7.1669
     7.5017   7.5017

     occupation numbers 
     1.0000   1.0000   1.0000   1.0000   1.0000   1.0000   1.0000   1.0000
     1.0000   1.0000   1.0000   1.0000   1.0000   1.0000   1.0000   1.0000
     1.0000   1.0000   1.0000   1.0000   1.0000   1.0000   1.0000   1.0000
     1.0000   1.0000   1.0000   1.0000   1.0000   1.0000   1.0000   1.0000
     1.0000   1.0000

          k = 0.0000 1.0126 0.0665 (  5427 PWs)   bands (ev):

   -46.3358 -46.3304 -34.2153 -34.2143 -22.7394 -22.6684 -22.6584 -22.6305
   -22.5881 -22.5158  -8.8987  -8.3836  -8.3317  -8.1862  -8.0684  -7.7070
     3.2092   3.5709   3.8369   4.1057   4.1160   4.4093   4.6275   4.9627
     5.1035   5.1427   5.7751   6.3165   6.6425   6.6650   7.1515   7.2295
     7.3332   7.3812

     occupation numbers 
     1.0000   1.0000   1.0000   1.0000   1.0000   1.0000   1.0000   1.0000
     1.0000   1.0000   1.0000   1.0000   1.0000   1.0000   1.0000   1.0000
     1.0000   1.0000   1.0000   1.0000   1.0000   1.0000   1.0000   1.0000
     1.0000   1.0000   1.0000   1.0000   1.0000   1.0000   1.0000   1.0000
     1.0000   1.0000

          k = 0.0000 0.8101 0.1329 (  5425 PWs)   bands (ev):

   -46.3331 -46.3331 -34.2149 -34.2148 -22.7571 -22.7196 -22.6764 -22.6076
   -22.5360 -22.5050  -8.8122  -8.7023  -8.3654  -8.0177  -7.9211  -7.6947
     2.9503   3.3858   3.4596   3.9137   4.2355   4.2650   5.0263   5.1063
     5.5273   5.6775   6.1205   6.1253   6.3997   6.7175   6.9911   6.9991
     7.1834   7.4710

     occupation numbers 
     1.0000   1.0000   1.0000   1.0000   1.0000   1.0000   1.0000   1.0000
     1.0000   1.0000   1.0000   1.0000   1.0000   1.0000   1.0000   1.0000
     1.0000   1.0000   1.0000   1.0000   1.0000   1.0000   1.0000   1.0000
     1.0000   1.0000   1.0000   1.0000   1.0000   1.0000   1.0000   1.0000
     1.0000   1.0000

          k = 0.8769 0.5063-0.2658 (  5420 PWs)   bands (ev):

   -46.3346 -46.3315 -34.2151 -34.2145 -22.7163 -22.7054 -22.6774 -22.6099
   -22.5563 -22.5357  -8.7878  -8.5661  -8.3756  -7.9934  -7.9860  -7.8718
     3.4892   3.5207   3.6135   4.1203   4.2418   4.3632   4.5352   4.8353
     5.2253   5.4208   5.7730   5.9694   6.7257   6.8071   6.9696   7.1718
     7.2075   7.4363

     occupation numbers 
     1.0000   1.0000   1.0000   1.0000   1.0000   1.0000   1.0000   1.0000
     1.0000   1.0000   1.0000   1.0000   1.0000   1.0000   1.0000   1.0000
     1.0000   1.0000   1.0000   1.0000   1.0000   1.0000   1.0000   1.0000
     1.0000   1.0000   1.0000   1.0000   1.0000   1.0000   1.0000   1.0000
     1.0000   1.0000

          k = 0.8769 0.3038-0.1994 (  5434 PWs)   bands (ev):

   -46.3331 -46.3331 -34.2148 -34.2148 -22.7432 -22.7432 -22.6397 -22.6397
   -22.5176 -22.5176  -8.7714  -8.7714  -8.2213  -8.2213  -7.7675  -7.7675
     3.1487   3.1487   3.6570   3.6570   4.5552   4.5552   4.7989   4.7989
     5.6008   5.6008   6.1346   6.1346   6.5653   6.5653   6.9206   6.9206
     7.3432   7.3432

     occupation numbers 
     1.0000   1.0000   1.0000   1.0000   1.0000   1.0000   1.0000   1.0000
     1.0000   1.0000   1.0000   1.0000   1.0000   1.0000   1.0000   1.0000
     1.0000   1.0000   1.0000   1.0000   1.0000   1.0000   1.0000   1.0000
     1.0000   1.0000   1.0000   1.0000   1.0000   1.0000   1.0000   1.0000
     1.0000   1.0000

          k =-0.0000 0.0000-0.5981 (  5416 PWs)   bands (ev):

   -46.3331 -46.3331 -34.2148 -34.2148 -22.6631 -22.6631 -22.6631 -22.6631
   -22.5748 -22.5748  -8.5706  -8.5706  -8.1241  -8.1241  -8.1241  -8.1241
     3.9802   3.9802   3.9802   3.9802   4.2081   4.2081   4.8455   4.8455
     4.8455   4.8455   5.3256   5.3256   6.9763   6.9763   7.2643   7.2643
     7.2643   7.2643

     occupation numbers 
     1.0000   1.0000   1.0000   1.0000   1.0000   1.0000   1.0000   1.0000
     1.0000   1.0000   1.0000   1.0000   1.0000   1.0000   1.0000   1.0000
     1.0000   1.0000   1.0000   1.0000   1.0000   1.0000   1.0000   1.0000
     1.0000   1.0000   1.0000   1.0000   1.0000   1.0000   1.0000   1.0000
     1.0000   1.0000

     highest occupied level (ev):     7.6003

!    total energy              =    -936.83585136 Ry
     estimated scf accuracy    <          4.5E-13 Ry

     The total energy is the sum of the following terms:
     one-electron contribution =    -135.33818481 Ry
     hartree contribution      =     103.41287275 Ry
     xc contribution           =    -108.44030928 Ry
     ewald contribution        =    -333.01404853 Ry
     one-center paw contrib.   =    -463.45618150 Ry
      -> PAW hartree energy AE =     295.71596773 Ry
      -> PAW hartree energy PS =    -294.18674891 Ry
      -> PAW xc energy AE      =    -561.01243446 Ry
      -> PAW xc energy PS      =      96.02703414 Ry
      -> total E_H with PAW    =     104.94209157 Ry
      -> total E_XC with PAW   =    -573.42570960 Ry

     convergence has been achieved in  24 iterations

     Forces acting on atoms (cartesian axes, Ry/au):

     atom    1 type  1   force =     0.00000000    0.00000000   -0.00122128
     atom    2 type  1   force =    -0.00000000   -0.00000000   -0.00122128
     atom    3 type  2   force =    -0.00921884    0.00284434    0.00107695
     atom    4 type  2   force =     0.00214615   -0.00940592    0.00107695
     atom    5 type  2   force =     0.00707269    0.00656158    0.00107695
     atom    6 type  2   force =    -0.00214615   -0.00940592    0.00107695
     atom    7 type  2   force =     0.00921884    0.00284434    0.00107695
     atom    8 type  2   force =    -0.00707269    0.00656158    0.00107695
     atom    9 type  3   force =    -0.00000000   -0.00000000   -0.00200957
     atom   10 type  3   force =    -0.00000000   -0.00000000   -0.00200957
     The non-local contrib.  to forces
     atom    1 type  1   force =     0.00000000    0.00000000    0.00882367
     atom    2 type  1   force =     0.00000000    0.00000000    0.00882367
     atom    3 type  2   force =     0.30321723   -0.18944400   -0.03959660
     atom    4 type  2   force =     0.01245470    0.35731582   -0.03959660
     atom    5 type  2   force =    -0.31567193   -0.16787183   -0.03959660
     atom    6 type  2   force =    -0.01245470    0.35731582   -0.03959660
     atom    7 type  2   force =    -0.30321723   -0.18944400   -0.03959660
     atom    8 type  2   force =     0.31567193   -0.16787183   -0.03959660
     atom    9 type  3   force =    -0.00000000    0.00000000   -0.01910376
     atom   10 type  3   force =    -0.00000000    0.00000000   -0.01910376
     The ionic contribution  to forces
     atom    1 type  1   force =     0.00000000   -0.00000000   -1.18829419
     atom    2 type  1   force =    -0.00000000    0.00000000   -1.18829419
     atom    3 type  2   force =    -3.67099127    2.82402904    0.34771173
     atom    4 type  2   force =    -0.61018526   -4.59118622    0.34771173
     atom    5 type  2   force =     4.28117652    1.76715717    0.34771173
     atom    6 type  2   force =     0.61018526   -4.59118622    0.34771173
     atom    7 type  2   force =     3.67099127    2.82402904    0.34771173
     atom    8 type  2   force =    -4.28117652    1.76715717    0.34771173
     atom    9 type  3   force =     0.00000000   -0.00000000    0.14515901
     atom   10 type  3   force =     0.00000000    0.00000000    0.14515901
     The local contribution  to forces
     atom    1 type  1   force =     0.00000000   -0.00000000    1.17824923
     atom    2 type  1   force =    -0.00000000    0.00000000    1.17824923
     atom    3 type  2   force =     3.35950362   -2.63328892   -0.30690325
     atom    4 type  2   force =     0.60074329    4.22605994   -0.30690325
     atom    5 type  2   force =    -3.96024691   -1.59277102   -0.30690325
     atom    6 type  2   force =    -0.60074329    4.22605994   -0.30690326
     atom    7 type  2   force =    -3.35950362   -2.63328892   -0.30690326
     atom    8 type  2   force =     3.96024691   -1.59277102   -0.30690326
     atom    9 type  3   force =     0.00000000    0.00000000   -0.12426559
     atom   10 type  3   force =    -0.00000000    0.00000000   -0.12426559
     The core correction contribution to forces
     atom    1 type  1   force =     0.00000000    0.00000000    0.00000000
     atom    2 type  1   force =     0.00000000    0.00000000    0.00000000
     atom    3 type  2   force =    -0.00094873    0.00154835   -0.00013493
     atom    4 type  2   force =    -0.00086655   -0.00159580   -0.00013493
     atom    5 type  2   force =     0.00181528    0.00004745   -0.00013493
     atom    6 type  2   force =     0.00086655   -0.00159580   -0.00013493
     atom    7 type  2   force =     0.00094873    0.00154835   -0.00013493
     atom    8 type  2   force =    -0.00181528    0.00004745   -0.00013493
     atom    9 type  3   force =     0.00000000    0.00000000   -0.00379931
     atom   10 type  3   force =     0.00000000   -0.00000000   -0.00379931
     The Hubbard contrib.    to forces
     atom    1 type  1   force =     0.00000000    0.00000000    0.00000000
     atom    2 type  1   force =     0.00000000    0.00000000    0.00000000
     atom    3 type  2   force =     0.00000000    0.00000000    0.00000000
     atom    4 type  2   force =     0.00000000    0.00000000    0.00000000
     atom    5 type  2   force =     0.00000000    0.00000000    0.00000000
     atom    6 type  2   force =     0.00000000    0.00000000    0.00000000
     atom    7 type  2   force =     0.00000000    0.00000000    0.00000000
     atom    8 type  2   force =     0.00000000    0.00000000    0.00000000
     atom    9 type  3   force =     0.00000000    0.00000000    0.00000000
     atom   10 type  3   force =     0.00000000    0.00000000    0.00000000
     The SCF correction term to forces
     atom    1 type  1   force =    -0.00000000   -0.00000000    0.00000001
     atom    2 type  1   force =     0.00000000   -0.00000000    0.00000001
     atom    3 type  2   force =     0.00000031   -0.00000014    0.00000000
     atom    4 type  2   force =    -0.00000004    0.00000034    0.00000000
     atom    5 type  2   force =    -0.00000027   -0.00000020    0.00000000
     atom    6 type  2   force =     0.00000004    0.00000034    0.00000000
     atom    7 type  2   force =    -0.00000031   -0.00000014    0.00000000
     atom    8 type  2   force =     0.00000027   -0.00000020    0.00000000
     atom    9 type  3   force =     0.00000000    0.00000000    0.00000008
     atom   10 type  3   force =     0.00000000    0.00000000    0.00000008

     Total force =     0.024010     Total SCF correction =     0.000001


     Computing stress (Cartesian axis) and pressure

          total   stress  (Ry/bohr**3)                   (kbar)     P=       47.75
   0.00026412   0.00000000   0.00000000           38.85        0.00        0.00
  -0.00000000   0.00026412   0.00000000           -0.00       38.85        0.00
   0.00000000   0.00000000   0.00044548            0.00        0.00       65.53

     kinetic stress (kbar)  27381.97      0.00      0.00
                                0.00  27381.97      0.00
                                0.00      0.00  27362.88

     local   stress (kbar) -13200.79     -0.00     -0.00
                               -0.00 -13200.79     -0.00
                               -0.00     -0.00 -10607.08

     nonloc. stress (kbar)   7117.65     -0.00      0.00
                                0.00   7117.65      0.00
                                0.00      0.00   7171.37

     hartree stress (kbar)   7518.94     -0.00      0.00
                               -0.00   7518.94      0.00
                                0.00      0.00   6870.98

     exc-cor stress (kbar)   1094.07      0.00     -0.00
                                0.00   1094.07      0.00
                               -0.00      0.00   1090.30

     corecor stress (kbar)  -7005.45     -0.00      0.00
                               -0.00  -7005.45     -0.00
                                0.00     -0.00  -7006.25

     ewald   stress (kbar) -22867.54      0.00      0.00
                                0.00 -22867.54      0.00
                                0.00      0.00 -24816.66

     hubbard stress (kbar)      0.00      0.00      0.00
                                0.00      0.00      0.00
                                0.00      0.00      0.00

     DFT-D   stress (kbar)      0.00      0.00      0.00
                                0.00      0.00      0.00
                                0.00      0.00      0.00

     XDM     stress (kbar)      0.00      0.00      0.00
                                0.00      0.00      0.00
                                0.00      0.00      0.00

     dft-nl  stress (kbar)      0.00      0.00      0.00
                                0.00      0.00      0.00
                                0.00      0.00      0.00

     TS-vdW  stress (kbar)      0.00      0.00      0.00
                                0.00      0.00      0.00
                                0.00      0.00      0.00

     MDB     stress (kbar)      0.00      0.00      0.00
                                0.00      0.00      0.00
                                0.00      0.00      0.00

     3D-RISM stress (kbar)      0.00      0.00      0.00
                                0.00      0.00      0.00
                                0.00      0.00      0.00

     Message from routine punch:
     Nothing written, as per user request (disk_io='none')
 
     init_run     :      0.57s CPU      0.77s WALL (       1 calls)
     electrons    :     15.99s CPU     16.38s WALL (       1 calls)
     forces       :      0.08s CPU      0.08s WALL (       1 calls)
     stress       :      0.16s CPU      0.16s WALL (       1 calls)

     Called by init_run:
     wfcinit      :      0.18s CPU      0.27s WALL (       1 calls)
     wfcinit:atom :      0.03s CPU      0.03s WALL (      32 calls)
     wfcinit:wfcr :      0.12s CPU      0.19s WALL (      32 calls)
     potinit      :      0.10s CPU      0.12s WALL (       1 calls)
     hinit0       :      0.21s CPU      0.24s WALL (       1 calls)

     Called by electrons:
     c_bands      :     12.00s CPU     12.29s WALL (      24 calls)
     sum_band     :      1.67s CPU      1.69s WALL (      24 calls)
     v_of_rho     :      0.10s CPU      0.11s WALL (      25 calls)
     v_h          :      0.04s CPU      0.05s WALL (      25 calls)
     v_xc         :      0.06s CPU      0.07s WALL (      27 calls)
     newd         :      0.24s CPU      0.27s WALL (      25 calls)
     PAW_pot      :      1.81s CPU      1.86s WALL (      25 calls)
     mix_rho      :      0.17s CPU      0.17s WALL (      24 calls)

     Called by c_bands:
     init_us_2    :      0.52s CPU      0.53s WALL (    1632 calls)
     cegterg      :     10.83s CPU     11.08s WALL (     768 calls)

     Called by sum_band:
     sum_band:wei :      0.00s CPU      0.00s WALL (      24 calls)
     sum_band:loo :      1.29s CPU      1.30s WALL (      24 calls)
     sum_band:buf :      0.24s CPU      0.24s WALL (     768 calls)
     sum_band:ini :      0.25s CPU      0.25s WALL (     768 calls)
     sum_band:cal :      0.01s CPU      0.01s WALL (     768 calls)
     sum_band:bec :      0.29s CPU      0.29s WALL (     768 calls)
     addusdens    :      0.25s CPU      0.25s WALL (      24 calls)
                                        0.25s GPU  (      24 calls)
     addusd:skk   :      0.01s CPU      0.01s WALL (      72 calls)
                                        0.01s GPU  (      72 calls)

     Called by *egterg:
     cdiaghg      :      4.73s CPU      4.85s WALL (    4165 calls)
                                        4.80s GPU  (    4165 calls)
     cegterg:over :      0.32s CPU      0.33s WALL (    3397 calls)
     cegterg:upda :      0.99s CPU      1.00s WALL (    3397 calls)
     cegterg:last :      0.13s CPU      0.13s WALL (    2231 calls)
     h_psi        :      3.10s CPU      3.32s WALL (    4197 calls)
     s_psi        :      1.06s CPU      1.08s WALL (    4197 calls)
     g_psi        :      0.07s CPU      0.07s WALL (    3397 calls)

     Called by h_psi:
     h_psi:calbec :      0.08s CPU      0.11s WALL (    4197 calls)
     vloc_psi     :      2.01s CPU      2.23s WALL (    4197 calls)
                                        2.19s GPU  (    4197 calls)
     add_vuspsi   :      0.89s CPU      0.92s WALL (    4197 calls)

     General routines
     calbec       :      0.09s CPU      0.12s WALL (    5509 calls)
     fft          :      0.04s CPU      0.07s WALL (     348 calls)
                                        0.03s GPU  (     323 calls)
     ffts         :      0.01s CPU      0.02s WALL (      49 calls)
                                        0.00s GPU  (      24 calls)
     fftw         :      0.15s CPU      1.36s WALL (   19074 calls)
                                        1.17s GPU  (   19074 calls)
     interpolate  :      0.07s CPU      0.08s WALL (      25 calls)
 
     Parallel routines

     PAW routines
     PAW_pot      :      1.81s CPU      1.86s WALL (      25 calls)
     PAW_symme    :      0.00s CPU      0.00s WALL (      49 calls)
 
     PWSCF        :     17.15s CPU     17.76s WALL

 
   This run was terminated on:  17: 5:56  29Nov2025            

=------------------------------------------------------------------------------=
   JOB DONE.
=------------------------------------------------------------------------------=
