
     Program PWSCF v.7.5 starts on 29Nov2025 at 17: 5:36 

     This program is part of the open-source Quantum ESPRESSO suite
     for quantum simulation of materials; please cite
         "P. Giannozzi et al., J. Phys.:Condens. Matter 21 395502 (2009);
         "P. Giannozzi et al., J. Phys.:Condens. Matter 29 465901 (2017);
         "P. Giannozzi et al., J. Chem. Phys. 152 154105 (2020);
          URL http://www.quantum-espresso.org", 
     in publications or presentations arising from this work. More details at
     http://www.quantum-espresso.org/quote

     Parallel version (MPI & OpenMP), running on       1 processor cores
     Number of MPI processes:                 1
     Threads/MPI process:                     1

     MPI processes distributed on     1 nodes
     1830891 MiB available memory on the printing compute node when the environment starts
 
     Reading input from espresso.pwi
Warning: card &CELL ignored
Warning: card &FCP ignored
Warning: card &RISM ignored

     Current dimensions of program PWSCF are:
     Max number of different atomic species (ntypx) = 10
     Max number of k-points (npk) =  40000
     Max angular momentum in pseudopotentials (lmaxx) =  4
     file O.pbesol-n-kjpaw_psl.0.1.UPF: wavefunction(s)  2P renormalized
     file Nb.pbesol-spn-kjpaw_psl.0.3.0.UPF: wavefunction(s)  4S 4P renormalized
     Message from routine setup:
     using ibrav=0 with symmetry is DISCOURAGED, use correct ibrav instead
 
     Subspace diagonalization in iterative solution of the eigenvalue problem:
     a serial algorithm will be used

 
     G-vector sticks info
     --------------------
     sticks:   dense  smooth     PW     G-vecs:    dense   smooth      PW
     Sum        2817    1691    489                94735    44041    6971
 
     Using Slab Decomposition
 


     bravais-lattice index     =            0
     lattice parameter (alat)  =      10.3917  a.u.
     unit-cell volume          =     701.3717 (a.u.)^3
     number of atoms/cell      =           10
     number of atomic types    =            3
     number of electrons       =        68.00
     number of Kohn-Sham states=           34
     kinetic-energy cutoff     =      60.0000  Ry
     charge density cutoff     =     400.0000  Ry
     scf convergence threshold =      1.0E-12
     mixing beta               =       0.7000
     number of iterations used =            8  plain     mixing
     Exchange-correlation= SLA  PW   PSX  PSC
                           (   1   4  10   8   0   0   0)

     GPU acceleration is ACTIVE.  1 visible GPUs per MPI rank


     GPU used by master process:

        Device Number: 0
        Device name: NVIDIA B200
        Compute capability : 100
        Ratio of single to double precision performance  : 16
        Memory Clock Rate (KHz): 3996000
        Memory Bus Width (bits): 7680
        Peak Memory Bandwidth (GB/s): ******

     celldm(1)=  10.391700  celldm(2)=   0.000000  celldm(3)=   0.000000
     celldm(4)=   0.000000  celldm(5)=   0.000000  celldm(6)=   0.000000

     crystal axes: (cart. coord. in units of alat)
               a(1) = (   0.461825   0.266635   0.845945 )  
               a(2) = (  -0.461825   0.266635   0.845945 )  
               a(3) = (   0.000000  -0.533270   0.845945 )  

     reciprocal axes: (cart. coord. in units 2 pi/alat)
               b(1) = (  1.082660  0.625074  0.394037 )  
               b(2) = ( -1.082660  0.625074  0.394037 )  
               b(3) = (  0.000000 -1.250148  0.394037 )  


     PseudoPot. # 1 for Li read from file:
     /home/qhossain/SSSP_1.3.0_PBEsol_efficiency/li_pbesol_v1.4.uspp.F.UPF
     MD5 check sum: aa28d9aeea6a965f2dc95ee9517b3536
     Pseudo is Ultrasoft, Zval =  3.0
     Generated by new atomic code, or converted to UPF format
     Using radial grid of  751 points,  5 beta functions with: 
                l(1) =   0
                l(2) =   0
                l(3) =   0
                l(4) =   1
                l(5) =   1
     Q(r) pseudized with 10 coefficients,  rinner =    1.150   1.150   1.150


     PseudoPot. # 2 for O  read from file:
     /home/qhossain/SSSP_1.3.0_PBEsol_efficiency/O.pbesol-n-kjpaw_psl.0.1.UPF
     MD5 check sum: 81d73d1479e654e5638b0319f0d6c2c7
     Pseudo is Projector augmented-wave + core cor, Zval =  6.0
     Generated using "atomic" code by A. Dal Corso  v.6.0 svn rev. 13079
     Shape of augmentation charge: BESSEL
     Using radial grid of 1095 points,  4 beta functions with: 
                l(1) =   0
                l(2) =   0
                l(3) =   1
                l(4) =   1
     Q(r) pseudized with 0 coefficients 


     PseudoPot. # 3 for Nb read from file:
     /home/qhossain/SSSP_1.3.0_PBEsol_efficiency/Nb.pbesol-spn-kjpaw_psl.0.3.0.UPF
     MD5 check sum: 3501bca1474143575298708b2d32ca28
     Pseudo is Projector augmented-wave + core cor, Zval = 13.0
     Generated using "atomic" code by A. Dal Corso  v.6.0 svn rev. 13079
     Shape of augmentation charge: PSQ
     Using radial grid of 1227 points,  6 beta functions with: 
                l(1) =   0
                l(2) =   0
                l(3) =   1
                l(4) =   1
                l(5) =   2
                l(6) =   2
     Q(r) pseudized with 0 coefficients 


     atomic species   valence    mass     pseudopotential
     Li                3.00     6.94000     Li( 1.00)
     O                 6.00    15.99900     O ( 1.00)
     Nb               13.00    92.90637     Nb( 1.00)

      6 Sym. Ops. (no inversion) found ( 3 have fractional translation)


                                    s                        frac. trans.

      isym =  1     identity                                     

 cryst.   s( 1) = (     1          0          0      )
                  (     0          1          0      )
                  (     0          0          1      )

 cart.    s( 1) = (  1.0000000  0.0000000 -0.0000000 )
                  (  0.0000000  1.0000000  0.0000000 )
                  (  0.0000000 -0.0000000  1.0000000 )


      isym =  2     120 deg rotation - cryst. axis [0,0,1]       

 cryst.   s( 2) = (     0          1          0      )
                  (     0          0          1      )
                  (     1          0          0      )

 cart.    s( 2) = ( -0.5000000 -0.8660254 -0.0000000 )
                  (  0.8660254 -0.5000000 -0.0000000 )
                  (  0.0000000  0.0000000  1.0000000 )


      isym =  3     120 deg rotation - cryst. axis [0,0,-1]      

 cryst.   s( 3) = (     0          0          1      )
                  (     1          0          0      )
                  (     0          1          0      )

 cart.    s( 3) = ( -0.5000000  0.8660254  0.0000000 )
                  ( -0.8660254 -0.5000000 -0.0000000 )
                  ( -0.0000000 -0.0000000  1.0000000 )


      isym =  4     inv. 180 deg rotation - cart. axis [1,0,0]   

 cryst.   s( 4) = (     0          1          0      )    f =(  0.5000000 )
                  (     1          0          0      )       (  0.5000000 )
                  (     0          0          1      )       (  0.5000000 )

 cart.    s( 4) = ( -1.0000000  0.0000000 -0.0000000 )    f =(  0.0000000 )
                  ( -0.0000000  1.0000000  0.0000000 )       ( -0.0000000 )
                  ( -0.0000000 -0.0000000  1.0000000 )       (  1.2689176 )


      isym =  5     inv. 180 deg rotation - cryst. axis [0,1,0]  

 cryst.   s( 5) = (     1          0          0      )    f =(  0.5000000 )
                  (     0          0          1      )       (  0.5000000 )
                  (     0          1          0      )       (  0.5000000 )

 cart.    s( 5) = (  0.5000000  0.8660254  0.0000000 )    f =(  0.0000000 )
                  (  0.8660254 -0.5000000 -0.0000000 )       ( -0.0000000 )
                  (  0.0000000 -0.0000000  1.0000000 )       (  1.2689176 )


      isym =  6     inv. 180 deg rotation - cryst. axis [1,1,0]  

 cryst.   s( 6) = (     0          0          1      )    f =(  0.5000000 )
                  (     0          1          0      )       (  0.5000000 )
                  (     1          0          0      )       (  0.5000000 )

 cart.    s( 6) = (  0.5000000 -0.8660254 -0.0000000 )    f =( -0.0000000 )
                  ( -0.8660254 -0.5000000 -0.0000000 )       ( -0.0000000 )
                  ( -0.0000000  0.0000000  1.0000000 )       (  1.2689176 )


   Cartesian axes

     site n.     atom                  positions (alat units)
         1        Li     tau(   1) = (   0.0000000  -0.0000000   1.9882136  )
         2        Li     tau(   2) = (  -0.0000000  -0.0000000   0.7192960  )
         3        O      tau(   3) = (  -0.2960213  -0.0377542   1.4366787  )
         4        O      tau(   4) = (   0.1807067  -0.2374849   1.4366787  )
         5        O      tau(   5) = (   0.1153146   0.2752390   1.4366787  )
         6        O      tau(   6) = (   0.2811187   0.0291501   1.0137062  )
         7        O      tau(   7) = (  -0.1658041   0.2288808   1.0137062  )
         8        O      tau(   8) = (  -0.1153146  -0.2580310   1.0137062  )
         9        Nb     tau(   9) = (  -0.0000000  -0.0000000   1.2716487  )
        10        Nb     tau(  10) = (  -0.0000000  -0.0000000   0.0027310  )

   Crystallographic axes

     site n.     atom                  positions (cryst. coord.)
         1        Li     tau(   1) = (  0.7834289  0.7834289  0.7834289  )
         2        Li     tau(   2) = (  0.2834289  0.2834289  0.2834289  )
         3        O      tau(   3) = (  0.2220144  0.8629954  0.6133023  )
         4        O      tau(   4) = (  0.6133023  0.2220144  0.8629954  )
         5        O      tau(   5) = (  0.8629954  0.6133023  0.2220144  )
         6        O      tau(   6) = (  0.7220144  0.1133023  0.3629954  )
         7        O      tau(   7) = (  0.3629954  0.7220144  0.1133023  )
         8        O      tau(   8) = (  0.1133023  0.3629954  0.7220144  )
         9        Nb     tau(   9) = (  0.5010761  0.5010761  0.5010761  )
        10        Nb     tau(  10) = (  0.0010761  0.0010761  0.0010761  )

     number of k points=    32
                       cart. coord. in units 2pi/alat
        k(    1) = (   0.0000000   0.0000000   0.0000000), wk =   0.0092593
        k(    2) = (   0.0000000  -0.2083581   0.0656728), wk =   0.0555556
        k(    3) = (   0.0000000  -0.4167161   0.1313455), wk =   0.0555556
        k(    4) = (  -0.0000000   0.6250742  -0.1970183), wk =   0.0277778
        k(    5) = (  -0.1804434  -0.1041790   0.1313455), wk =   0.0555556
        k(    6) = (  -0.1804434  -0.3125371   0.1970183), wk =   0.1111111
        k(    7) = (  -0.1804434   0.7292532  -0.1313455), wk =   0.1111111
        k(    8) = (  -0.1804434   0.5208952  -0.0656728), wk =   0.1111111
        k(    9) = (  -0.1804434   0.3125371   0.0000000), wk =   0.0555556
        k(   10) = (  -0.3608868  -0.2083581   0.2626911), wk =   0.0555556
        k(   11) = (  -0.3608868   0.8334323  -0.0656728), wk =   0.1111111
        k(   12) = (  -0.3608868   0.6250742   0.0000000), wk =   0.0555556
        k(   13) = (   0.5413301   0.3125371  -0.3940366), wk =   0.0277778
        k(   14) = (  -0.0000000   0.0000000   0.1970183), wk =   0.0185185
        k(   15) = (  -0.0000000  -0.2083581   0.2626911), wk =   0.0555556
        k(   16) = (  -0.0000000   0.8334323  -0.0656728), wk =   0.0555556
        k(   17) = (  -0.0000000   0.6250742   0.0000000), wk =   0.0555556
        k(   18) = (  -0.0000000   0.4167161   0.0656728), wk =   0.0555556
        k(   19) = (  -0.1804434  -0.1041790   0.3283638), wk =   0.0555556
        k(   20) = (  -0.1804434   0.9376113   0.0000000), wk =   0.1111111
        k(   21) = (  -0.1804434   0.7292532   0.0656728), wk =   0.1111111
        k(   22) = (  -0.1804434   0.5208952   0.1313455), wk =   0.1111111
        k(   23) = (   0.7217735   0.4167161  -0.3283638), wk =   0.0555556
        k(   24) = (   0.7217735   0.2083581  -0.2626911), wk =   0.1111111
        k(   25) = (   0.7217735  -0.0000000  -0.1970183), wk =   0.0555556
        k(   26) = (   0.5413301   0.3125371  -0.1970183), wk =   0.0555556
        k(   27) = (  -0.0000000   0.0000000   0.3940366), wk =   0.0185185
        k(   28) = (  -0.0000000   1.0417904   0.0656728), wk =   0.0555556
        k(   29) = (  -0.0000000   0.8334323   0.1313455), wk =   0.0555556
        k(   30) = (   0.9022169   0.5208952  -0.2626911), wk =   0.0555556
        k(   31) = (   0.9022169   0.3125371  -0.1970183), wk =   0.0555556
        k(   32) = (  -0.0000000   0.0000000  -0.5910549), wk =   0.0092593

                       cryst. coord.
        k(    1) = (   0.0000000   0.0000000   0.0000000), wk =   0.0092593
        k(    2) = (  -0.0000000  -0.0000000   0.1666667), wk =   0.0555556
        k(    3) = (  -0.0000000  -0.0000000   0.3333333), wk =   0.0555556
        k(    4) = (   0.0000000   0.0000000  -0.5000000), wk =   0.0277778
        k(    5) = (   0.0000000   0.1666667   0.1666667), wk =   0.0555556
        k(    6) = (  -0.0000000   0.1666667   0.3333333), wk =   0.1111111
        k(    7) = (   0.0000000   0.1666667  -0.5000000), wk =   0.1111111
        k(    8) = (   0.0000000   0.1666667  -0.3333333), wk =   0.1111111
        k(    9) = (   0.0000000   0.1666667  -0.1666667), wk =   0.0555556
        k(   10) = (   0.0000000   0.3333333   0.3333333), wk =   0.0555556
        k(   11) = (   0.0000000   0.3333333  -0.5000000), wk =   0.1111111
        k(   12) = (   0.0000000   0.3333333  -0.3333333), wk =   0.0555556
        k(   13) = (   0.0000000  -0.5000000  -0.5000000), wk =   0.0277778
        k(   14) = (   0.1666667   0.1666667   0.1666667), wk =   0.0185185
        k(   15) = (   0.1666667   0.1666667   0.3333333), wk =   0.0555556
        k(   16) = (   0.1666667   0.1666667  -0.5000000), wk =   0.0555556
        k(   17) = (   0.1666667   0.1666667  -0.3333333), wk =   0.0555556
        k(   18) = (   0.1666667   0.1666667  -0.1666667), wk =   0.0555556
        k(   19) = (   0.1666667   0.3333333   0.3333333), wk =   0.0555556
        k(   20) = (   0.1666667   0.3333333  -0.5000000), wk =   0.1111111
        k(   21) = (   0.1666667   0.3333333  -0.3333333), wk =   0.1111111
        k(   22) = (   0.1666667   0.3333333  -0.1666667), wk =   0.1111111
        k(   23) = (   0.1666667  -0.5000000  -0.5000000), wk =   0.0555556
        k(   24) = (   0.1666667  -0.5000000  -0.3333333), wk =   0.1111111
        k(   25) = (   0.1666667  -0.5000000  -0.1666667), wk =   0.0555556
        k(   26) = (   0.1666667  -0.3333333  -0.3333333), wk =   0.0555556
        k(   27) = (   0.3333333   0.3333333   0.3333333), wk =   0.0185185
        k(   28) = (   0.3333333   0.3333333  -0.5000000), wk =   0.0555556
        k(   29) = (   0.3333333   0.3333333  -0.3333333), wk =   0.0555556
        k(   30) = (   0.3333333  -0.5000000  -0.5000000), wk =   0.0555556
        k(   31) = (   0.3333333  -0.5000000  -0.3333333), wk =   0.0555556
        k(   32) = (  -0.5000000  -0.5000000  -0.5000000), wk =   0.0092593

     Dense  grid:    94735 G-vectors     FFT dimensions: (  72,  72,  72)

     Smooth grid:    44041 G-vectors     FFT dimensions: (  54,  54,  54)

     Dynamical RAM for                 wfc:       2.86 MB

     Dynamical RAM for     wfc (w. buffer):      94.25 MB

     Dynamical RAM for           str. fact:       4.34 MB

     Dynamical RAM for           local pot:       0.00 MB

     Dynamical RAM for          nlocal pot:       8.57 MB

     Dynamical RAM for                qrad:       4.82 MB

     Dynamical RAM for          rho,v,vnew:      12.88 MB

     Dynamical RAM for               rhoin:       4.29 MB

     Dynamical RAM for            rho*nmix:      23.13 MB

     Dynamical RAM for           G-vectors:       5.76 MB

     Dynamical RAM for          h,s,v(r/c):       0.21 MB

     Dynamical RAM for          <psi|beta>:       0.05 MB

     Dynamical RAM for                 psi:       5.71 MB

     Dynamical RAM for                hpsi:       5.71 MB

     Dynamical RAM for                spsi:       5.71 MB

     Dynamical RAM for      wfcinit/wfcrot:       5.74 MB

     Dynamical RAM for           addusdens:     277.54 MB

     Dynamical RAM for          addusforce:     292.75 MB

     Dynamical RAM for         addusstress:     290.55 MB

     Estimated static dynamical RAM per process >     154.92 MB

     Estimated max dynamical RAM per process >     470.79 MB

     Check: negative core charge=   -0.000005

     Initial potential from superposition of free atoms

     starting charge      67.0945, renormalised to      68.0000
     Starting wfcs are   54 randomized atomic wfcs
     Checking if some PAW data can be deallocated... 

     total cpu time spent up to now is        1.2 secs

     per-process dynamical memory:   554.4 Mb

     Self-consistent Calculation
[tb_dev] Currently allocated     1.86E+00 Mbytes, locked:    0 /   3
[tb_pin] Currently allocated     0.00E+00 Mbytes, locked:    0 /   0

     iteration #  1     ecut=    60.00 Ry     beta= 0.70
     Davidson diagonalization with overlap

---- Real-time Memory Report at c_bands before calling an iterative solver
           982 MiB given to the printing process from OS
           541 MiB allocation reported by mallinfo(arena+hblkhd)
       1830460 MiB available memory on the node where the printing process lives
     GPU memory used/free/total (MiB): 2273 / 180368 / 182642
------------------
     ethr =  1.00E-02,  avg # of iterations =  1.3

     total cpu time spent up to now is        1.6 secs

     total energy              =    -934.51680691 Ry
     estimated scf accuracy    <       4.33350630 Ry
[tb_dev] Currently allocated     0.00E+00 Mbytes, locked:    0 /   0
[tb_pin] Currently allocated     0.00E+00 Mbytes, locked:    0 /   0

     iteration #  2     ecut=    60.00 Ry     beta= 0.70
     Davidson diagonalization with overlap

---- Real-time Memory Report at c_bands before calling an iterative solver
          1033 MiB given to the printing process from OS
           616 MiB allocation reported by mallinfo(arena+hblkhd)
       1830426 MiB available memory on the node where the printing process lives
     GPU memory used/free/total (MiB): 2273 / 180368 / 182642
------------------
     ethr =  6.37E-03,  avg # of iterations =  8.4

     total cpu time spent up to now is        2.7 secs

     total energy              =    -934.14148854 Ry
     estimated scf accuracy    <      14.09678257 Ry
[tb_dev] Currently allocated     0.00E+00 Mbytes, locked:    0 /   0
[tb_pin] Currently allocated     0.00E+00 Mbytes, locked:    0 /   0

     iteration #  3     ecut=    60.00 Ry     beta= 0.70
     Davidson diagonalization with overlap

---- Real-time Memory Report at c_bands before calling an iterative solver
          1039 MiB given to the printing process from OS
           620 MiB allocation reported by mallinfo(arena+hblkhd)
       1830452 MiB available memory on the node where the printing process lives
     GPU memory used/free/total (MiB): 2275 / 180366 / 182642
------------------
     ethr =  6.37E-03,  avg # of iterations =  5.7

     total cpu time spent up to now is        3.5 secs

     total energy              =    -936.68421025 Ry
     estimated scf accuracy    <       0.05555407 Ry
[tb_dev] Currently allocated     0.00E+00 Mbytes, locked:    0 /   0
[tb_pin] Currently allocated     0.00E+00 Mbytes, locked:    0 /   0

     iteration #  4     ecut=    60.00 Ry     beta= 0.70
     Davidson diagonalization with overlap

---- Real-time Memory Report at c_bands before calling an iterative solver
          1041 MiB given to the printing process from OS
           622 MiB allocation reported by mallinfo(arena+hblkhd)
       1830466 MiB available memory on the node where the printing process lives
     GPU memory used/free/total (MiB): 2275 / 180366 / 182642
------------------
     ethr =  8.17E-05,  avg # of iterations =  9.2

     total cpu time spent up to now is        4.6 secs

     total energy              =    -936.71016640 Ry
     estimated scf accuracy    <       0.29182172 Ry
[tb_dev] Currently allocated     0.00E+00 Mbytes, locked:    0 /   0
[tb_pin] Currently allocated     0.00E+00 Mbytes, locked:    0 /   0

     iteration #  5     ecut=    60.00 Ry     beta= 0.70
     Davidson diagonalization with overlap

---- Real-time Memory Report at c_bands before calling an iterative solver
          1043 MiB given to the printing process from OS
           614 MiB allocation reported by mallinfo(arena+hblkhd)
       1830081 MiB available memory on the node where the printing process lives
     GPU memory used/free/total (MiB): 2275 / 180366 / 182642
------------------
     ethr =  8.17E-05,  avg # of iterations =  7.6

     total cpu time spent up to now is        5.6 secs

     total energy              =    -936.81424807 Ry
     estimated scf accuracy    <       0.29771204 Ry
[tb_dev] Currently allocated     0.00E+00 Mbytes, locked:    0 /   0
[tb_pin] Currently allocated     0.00E+00 Mbytes, locked:    0 /   0

     iteration #  6     ecut=    60.00 Ry     beta= 0.70
     Davidson diagonalization with overlap

---- Real-time Memory Report at c_bands before calling an iterative solver
          1044 MiB given to the printing process from OS
           624 MiB allocation reported by mallinfo(arena+hblkhd)
       1830112 MiB available memory on the node where the printing process lives
     GPU memory used/free/total (MiB): 2275 / 180366 / 182642
------------------
     ethr =  8.17E-05,  avg # of iterations =  4.8

     total cpu time spent up to now is        6.3 secs

     total energy              =    -936.81277489 Ry
     estimated scf accuracy    <       0.05566030 Ry
[tb_dev] Currently allocated     0.00E+00 Mbytes, locked:    0 /   0
[tb_pin] Currently allocated     0.00E+00 Mbytes, locked:    0 /   0

     iteration #  7     ecut=    60.00 Ry     beta= 0.70
     Davidson diagonalization with overlap

---- Real-time Memory Report at c_bands before calling an iterative solver
          1046 MiB given to the printing process from OS
           626 MiB allocation reported by mallinfo(arena+hblkhd)
       1830100 MiB available memory on the node where the printing process lives
     GPU memory used/free/total (MiB): 2275 / 180366 / 182642
------------------
     ethr =  8.17E-05,  avg # of iterations =  4.9

     total cpu time spent up to now is        7.0 secs

     total energy              =    -936.83804653 Ry
     estimated scf accuracy    <       0.00605813 Ry
[tb_dev] Currently allocated     0.00E+00 Mbytes, locked:    0 /   0
[tb_pin] Currently allocated     0.00E+00 Mbytes, locked:    0 /   0

     iteration #  8     ecut=    60.00 Ry     beta= 0.70
     Davidson diagonalization with overlap

---- Real-time Memory Report at c_bands before calling an iterative solver
          1048 MiB given to the printing process from OS
           628 MiB allocation reported by mallinfo(arena+hblkhd)
       1830085 MiB available memory on the node where the printing process lives
     GPU memory used/free/total (MiB): 2275 / 180366 / 182642
------------------
     ethr =  8.91E-06,  avg # of iterations =  2.8

     total cpu time spent up to now is        7.5 secs

     total energy              =    -936.83677025 Ry
     estimated scf accuracy    <       0.00493000 Ry
[tb_dev] Currently allocated     0.00E+00 Mbytes, locked:    0 /   0
[tb_pin] Currently allocated     0.00E+00 Mbytes, locked:    0 /   0

     iteration #  9     ecut=    60.00 Ry     beta= 0.70
     Davidson diagonalization with overlap

---- Real-time Memory Report at c_bands before calling an iterative solver
          1049 MiB given to the printing process from OS
           629 MiB allocation reported by mallinfo(arena+hblkhd)
       1830092 MiB available memory on the node where the printing process lives
     GPU memory used/free/total (MiB): 2275 / 180366 / 182642
------------------
     ethr =  7.25E-06,  avg # of iterations =  2.0

     total cpu time spent up to now is        8.0 secs

     total energy              =    -936.83657214 Ry
     estimated scf accuracy    <       0.00125214 Ry
[tb_dev] Currently allocated     0.00E+00 Mbytes, locked:    0 /   0
[tb_pin] Currently allocated     0.00E+00 Mbytes, locked:    0 /   0

     iteration # 10     ecut=    60.00 Ry     beta= 0.70
     Davidson diagonalization with overlap

---- Real-time Memory Report at c_bands before calling an iterative solver
          1051 MiB given to the printing process from OS
           631 MiB allocation reported by mallinfo(arena+hblkhd)
       1830111 MiB available memory on the node where the printing process lives
     GPU memory used/free/total (MiB): 2275 / 180366 / 182642
------------------
     ethr =  1.84E-06,  avg # of iterations =  5.3

     total cpu time spent up to now is        8.7 secs

     total energy              =    -936.83709786 Ry
     estimated scf accuracy    <       0.00007003 Ry
[tb_dev] Currently allocated     0.00E+00 Mbytes, locked:    0 /   0
[tb_pin] Currently allocated     0.00E+00 Mbytes, locked:    0 /   0

     iteration # 11     ecut=    60.00 Ry     beta= 0.70
     Davidson diagonalization with overlap

---- Real-time Memory Report at c_bands before calling an iterative solver
          1052 MiB given to the printing process from OS
           631 MiB allocation reported by mallinfo(arena+hblkhd)
       1830117 MiB available memory on the node where the printing process lives
     GPU memory used/free/total (MiB): 2275 / 180366 / 182642
------------------
     ethr =  1.03E-07,  avg # of iterations =  4.7

     total cpu time spent up to now is        9.5 secs

     total energy              =    -936.83711834 Ry
     estimated scf accuracy    <       0.00000716 Ry
[tb_dev] Currently allocated     0.00E+00 Mbytes, locked:    0 /   0
[tb_pin] Currently allocated     0.00E+00 Mbytes, locked:    0 /   0

     iteration # 12     ecut=    60.00 Ry     beta= 0.70
     Davidson diagonalization with overlap

---- Real-time Memory Report at c_bands before calling an iterative solver
          1052 MiB given to the printing process from OS
           631 MiB allocation reported by mallinfo(arena+hblkhd)
       1829884 MiB available memory on the node where the printing process lives
     GPU memory used/free/total (MiB): 2275 / 180366 / 182642
------------------
     ethr =  1.05E-08,  avg # of iterations =  4.8

     total cpu time spent up to now is       10.2 secs

     total energy              =    -936.83711803 Ry
     estimated scf accuracy    <       0.00000692 Ry
[tb_dev] Currently allocated     0.00E+00 Mbytes, locked:    0 /   0
[tb_pin] Currently allocated     0.00E+00 Mbytes, locked:    0 /   0

     iteration # 13     ecut=    60.00 Ry     beta= 0.70
     Davidson diagonalization with overlap

---- Real-time Memory Report at c_bands before calling an iterative solver
          1052 MiB given to the printing process from OS
           631 MiB allocation reported by mallinfo(arena+hblkhd)
       1829971 MiB available memory on the node where the printing process lives
     GPU memory used/free/total (MiB): 2275 / 180366 / 182642
------------------
     ethr =  1.02E-08,  avg # of iterations =  2.7

     total cpu time spent up to now is       10.7 secs

     total energy              =    -936.83711853 Ry
     estimated scf accuracy    <       0.00000075 Ry
[tb_dev] Currently allocated     0.00E+00 Mbytes, locked:    0 /   0
[tb_pin] Currently allocated     0.00E+00 Mbytes, locked:    0 /   0

     iteration # 14     ecut=    60.00 Ry     beta= 0.70
     Davidson diagonalization with overlap

---- Real-time Memory Report at c_bands before calling an iterative solver
          1052 MiB given to the printing process from OS
           631 MiB allocation reported by mallinfo(arena+hblkhd)
       1829998 MiB available memory on the node where the printing process lives
     GPU memory used/free/total (MiB): 2275 / 180366 / 182642
------------------
     ethr =  1.11E-09,  avg # of iterations =  6.9

     total cpu time spent up to now is       11.6 secs

     total energy              =    -936.83711930 Ry
     estimated scf accuracy    <       0.00000177 Ry
[tb_dev] Currently allocated     0.00E+00 Mbytes, locked:    0 /   0
[tb_pin] Currently allocated     0.00E+00 Mbytes, locked:    0 /   0

     iteration # 15     ecut=    60.00 Ry     beta= 0.70
     Davidson diagonalization with overlap

---- Real-time Memory Report at c_bands before calling an iterative solver
          1052 MiB given to the printing process from OS
           631 MiB allocation reported by mallinfo(arena+hblkhd)
       1830053 MiB available memory on the node where the printing process lives
     GPU memory used/free/total (MiB): 2275 / 180366 / 182642
------------------
     ethr =  1.11E-09,  avg # of iterations =  2.0

     total cpu time spent up to now is       12.1 secs

     total energy              =    -936.83711918 Ry
     estimated scf accuracy    <       0.00000074 Ry
[tb_dev] Currently allocated     0.00E+00 Mbytes, locked:    0 /   0
[tb_pin] Currently allocated     0.00E+00 Mbytes, locked:    0 /   0

     iteration # 16     ecut=    60.00 Ry     beta= 0.70
     Davidson diagonalization with overlap

---- Real-time Memory Report at c_bands before calling an iterative solver
          1052 MiB given to the printing process from OS
           631 MiB allocation reported by mallinfo(arena+hblkhd)
       1830045 MiB available memory on the node where the printing process lives
     GPU memory used/free/total (MiB): 2275 / 180366 / 182642
------------------
     ethr =  1.09E-09,  avg # of iterations =  2.4

     total cpu time spent up to now is       12.6 secs

     total energy              =    -936.83711920 Ry
     estimated scf accuracy    <       0.00000023 Ry
[tb_dev] Currently allocated     0.00E+00 Mbytes, locked:    0 /   0
[tb_pin] Currently allocated     0.00E+00 Mbytes, locked:    0 /   0

     iteration # 17     ecut=    60.00 Ry     beta= 0.70
     Davidson diagonalization with overlap

---- Real-time Memory Report at c_bands before calling an iterative solver
          1052 MiB given to the printing process from OS
           631 MiB allocation reported by mallinfo(arena+hblkhd)
       1830066 MiB available memory on the node where the printing process lives
     GPU memory used/free/total (MiB): 2275 / 180366 / 182642
------------------
     ethr =  3.35E-10,  avg # of iterations =  4.8

     total cpu time spent up to now is       13.3 secs

     total energy              =    -936.83711928 Ry
     estimated scf accuracy    <          9.8E-10 Ry
[tb_dev] Currently allocated     0.00E+00 Mbytes, locked:    0 /   0
[tb_pin] Currently allocated     0.00E+00 Mbytes, locked:    0 /   0

     iteration # 18     ecut=    60.00 Ry     beta= 0.70
     Davidson diagonalization with overlap

---- Real-time Memory Report at c_bands before calling an iterative solver
          1052 MiB given to the printing process from OS
           631 MiB allocation reported by mallinfo(arena+hblkhd)
       1830104 MiB available memory on the node where the printing process lives
     GPU memory used/free/total (MiB): 2275 / 180366 / 182642
------------------
     ethr =  1.45E-12,  avg # of iterations =  9.3

     total cpu time spent up to now is       14.5 secs

     total energy              =    -936.83711928 Ry
     estimated scf accuracy    <          1.0E-09 Ry
[tb_dev] Currently allocated     0.00E+00 Mbytes, locked:    0 /   0
[tb_pin] Currently allocated     0.00E+00 Mbytes, locked:    0 /   0

     iteration # 19     ecut=    60.00 Ry     beta= 0.70
     Davidson diagonalization with overlap

---- Real-time Memory Report at c_bands before calling an iterative solver
          1052 MiB given to the printing process from OS
           631 MiB allocation reported by mallinfo(arena+hblkhd)
       1830472 MiB available memory on the node where the printing process lives
     GPU memory used/free/total (MiB): 2275 / 180366 / 182642
------------------
     ethr =  1.45E-12,  avg # of iterations =  6.1

     total cpu time spent up to now is       15.3 secs

     total energy              =    -936.83711928 Ry
     estimated scf accuracy    <          1.1E-09 Ry
[tb_dev] Currently allocated     0.00E+00 Mbytes, locked:    0 /   0
[tb_pin] Currently allocated     0.00E+00 Mbytes, locked:    0 /   0

     iteration # 20     ecut=    60.00 Ry     beta= 0.70
     Davidson diagonalization with overlap

---- Real-time Memory Report at c_bands before calling an iterative solver
          1052 MiB given to the printing process from OS
           631 MiB allocation reported by mallinfo(arena+hblkhd)
       1830559 MiB available memory on the node where the printing process lives
     GPU memory used/free/total (MiB): 2275 / 180366 / 182642
------------------
     ethr =  1.45E-12,  avg # of iterations =  1.6

     total cpu time spent up to now is       15.7 secs

     total energy              =    -936.83711928 Ry
     estimated scf accuracy    <          5.1E-10 Ry
[tb_dev] Currently allocated     0.00E+00 Mbytes, locked:    0 /   0
[tb_pin] Currently allocated     0.00E+00 Mbytes, locked:    0 /   0

     iteration # 21     ecut=    60.00 Ry     beta= 0.70
     Davidson diagonalization with overlap

---- Real-time Memory Report at c_bands before calling an iterative solver
          1052 MiB given to the printing process from OS
           631 MiB allocation reported by mallinfo(arena+hblkhd)
       1830557 MiB available memory on the node where the printing process lives
     GPU memory used/free/total (MiB): 2275 / 180366 / 182642
------------------
     ethr =  7.56E-13,  avg # of iterations =  4.8

     total cpu time spent up to now is       16.4 secs

     total energy              =    -936.83711928 Ry
     estimated scf accuracy    <          7.4E-11 Ry
[tb_dev] Currently allocated     0.00E+00 Mbytes, locked:    0 /   0
[tb_pin] Currently allocated     0.00E+00 Mbytes, locked:    0 /   0

     iteration # 22     ecut=    60.00 Ry     beta= 0.70
     Davidson diagonalization with overlap

---- Real-time Memory Report at c_bands before calling an iterative solver
          1052 MiB given to the printing process from OS
           631 MiB allocation reported by mallinfo(arena+hblkhd)
       1830539 MiB available memory on the node where the printing process lives
     GPU memory used/free/total (MiB): 2275 / 180366 / 182642
------------------
     ethr =  1.09E-13,  avg # of iterations =  5.8

     total cpu time spent up to now is       17.2 secs

     total energy              =    -936.83711928 Ry
     estimated scf accuracy    <          2.8E-11 Ry
[tb_dev] Currently allocated     0.00E+00 Mbytes, locked:    0 /   0
[tb_pin] Currently allocated     0.00E+00 Mbytes, locked:    0 /   0

     iteration # 23     ecut=    60.00 Ry     beta= 0.70
     Davidson diagonalization with overlap

---- Real-time Memory Report at c_bands before calling an iterative solver
          1052 MiB given to the printing process from OS
           631 MiB allocation reported by mallinfo(arena+hblkhd)
       1830432 MiB available memory on the node where the printing process lives
     GPU memory used/free/total (MiB): 2275 / 180366 / 182642
------------------
     ethr =  1.00E-13,  avg # of iterations =  1.0

     total cpu time spent up to now is       17.6 secs

     total energy              =    -936.83711928 Ry
     estimated scf accuracy    <          1.8E-11 Ry
[tb_dev] Currently allocated     0.00E+00 Mbytes, locked:    0 /   0
[tb_pin] Currently allocated     0.00E+00 Mbytes, locked:    0 /   0

     iteration # 24     ecut=    60.00 Ry     beta= 0.70
     Davidson diagonalization with overlap

---- Real-time Memory Report at c_bands before calling an iterative solver
          1052 MiB given to the printing process from OS
           631 MiB allocation reported by mallinfo(arena+hblkhd)
       1830428 MiB available memory on the node where the printing process lives
     GPU memory used/free/total (MiB): 2275 / 180366 / 182642
------------------
     ethr =  1.00E-13,  avg # of iterations =  1.0

     total cpu time spent up to now is       18.0 secs

     total energy              =    -936.83711928 Ry
     estimated scf accuracy    <          4.2E-12 Ry
[tb_dev] Currently allocated     0.00E+00 Mbytes, locked:    0 /   0
[tb_pin] Currently allocated     0.00E+00 Mbytes, locked:    0 /   0

     iteration # 25     ecut=    60.00 Ry     beta= 0.70
     Davidson diagonalization with overlap

---- Real-time Memory Report at c_bands before calling an iterative solver
          1052 MiB given to the printing process from OS
           631 MiB allocation reported by mallinfo(arena+hblkhd)
       1830394 MiB available memory on the node where the printing process lives
     GPU memory used/free/total (MiB): 2275 / 180366 / 182642
------------------
     ethr =  1.00E-13,  avg # of iterations =  1.0

     total cpu time spent up to now is       18.4 secs

     total energy              =    -936.83711928 Ry
     estimated scf accuracy    <          1.2E-12 Ry
[tb_dev] Currently allocated     0.00E+00 Mbytes, locked:    0 /   0
[tb_pin] Currently allocated     0.00E+00 Mbytes, locked:    0 /   0

     iteration # 26     ecut=    60.00 Ry     beta= 0.70
     Davidson diagonalization with overlap

---- Real-time Memory Report at c_bands before calling an iterative solver
          1052 MiB given to the printing process from OS
           631 MiB allocation reported by mallinfo(arena+hblkhd)
       1830410 MiB available memory on the node where the printing process lives
     GPU memory used/free/total (MiB): 2275 / 180366 / 182642
------------------
     ethr =  1.00E-13,  avg # of iterations =  1.0

     total cpu time spent up to now is       18.8 secs

     End of self-consistent calculation

          k = 0.0000 0.0000 0.0000 (  5499 PWs)   bands (ev):

   -46.5084 -46.4911 -34.3478 -34.3445 -22.9078 -22.9078 -22.8328 -22.7346
   -22.7346 -22.6177  -9.5064  -8.8238  -8.8238  -7.8400  -7.5886  -7.5886
     2.8552   2.8552   3.0414   3.1598   3.1598   4.1050   5.3331   5.3937
     5.3937   6.2074   6.5576   6.5576   6.6952   6.8329   6.8329   6.9712
     7.4753   7.4753

     occupation numbers 
     1.0000   1.0000   1.0000   1.0000   1.0000   1.0000   1.0000   1.0000
     1.0000   1.0000   1.0000   1.0000   1.0000   1.0000   1.0000   1.0000
     1.0000   1.0000   1.0000   1.0000   1.0000   1.0000   1.0000   1.0000
     1.0000   1.0000   1.0000   1.0000   1.0000   1.0000   1.0000   1.0000
     1.0000   1.0000

          k = 0.0000-0.2084 0.0657 (  5503 PWs)   bands (ev):

   -46.5072 -46.4922 -34.3476 -34.3448 -22.8986 -22.8969 -22.8181 -22.7481
   -22.7470 -22.6321  -9.3903  -8.7575  -8.7553  -7.9221  -7.7041  -7.6871
     2.8020   2.9119   3.2112   3.4096   3.4275   4.1603   5.0127   5.1115
     5.2069   6.1780   6.3151   6.5867   6.5986   6.9221   7.0073   7.0543
     7.3191   7.3821

     occupation numbers 
     1.0000   1.0000   1.0000   1.0000   1.0000   1.0000   1.0000   1.0000
     1.0000   1.0000   1.0000   1.0000   1.0000   1.0000   1.0000   1.0000
     1.0000   1.0000   1.0000   1.0000   1.0000   1.0000   1.0000   1.0000
     1.0000   1.0000   1.0000   1.0000   1.0000   1.0000   1.0000   1.0000
     1.0000   1.0000

          k = 0.0000-0.4167 0.1313 (  5503 PWs)   bands (ev):

   -46.5040 -46.4953 -34.3471 -34.3454 -22.8711 -22.8667 -22.7838 -22.7806
   -22.7779 -22.6713  -9.0710  -8.5778  -8.5660  -8.1693  -7.9845  -7.9379
     2.9733   3.1503   3.4980   3.9329   3.9914   4.2811   4.3185   4.6668
     4.9142   5.5892   5.9865   6.2907   6.8659   6.8981   6.9787   7.1170
     7.2339   7.3796

     occupation numbers 
     1.0000   1.0000   1.0000   1.0000   1.0000   1.0000   1.0000   1.0000
     1.0000   1.0000   1.0000   1.0000   1.0000   1.0000   1.0000   1.0000
     1.0000   1.0000   1.0000   1.0000   1.0000   1.0000   1.0000   1.0000
     1.0000   1.0000   1.0000   1.0000   1.0000   1.0000   1.0000   1.0000
     1.0000   1.0000

          k =-0.0000 0.6251-0.1970 (  5484 PWs)   bands (ev):

   -46.4996 -46.4996 -34.3463 -34.3463 -22.8295 -22.8295 -22.8241 -22.8241
   -22.7248 -22.7248  -8.6440  -8.6440  -8.3117  -8.3117  -8.2199  -8.2199
     3.3685   3.3685   3.6477   3.6477   4.1341   4.1341   4.6283   4.6283
     5.1370   5.1370   5.6050   5.6050   6.9863   6.9863   7.1495   7.1495
     7.2472   7.2472

     occupation numbers 
     1.0000   1.0000   1.0000   1.0000   1.0000   1.0000   1.0000   1.0000
     1.0000   1.0000   1.0000   1.0000   1.0000   1.0000   1.0000   1.0000
     1.0000   1.0000   1.0000   1.0000   1.0000   1.0000   1.0000   1.0000
     1.0000   1.0000   1.0000   1.0000   1.0000   1.0000   1.0000   1.0000
     1.0000   1.0000

          k =-0.1804-0.1042 0.1313 (  5486 PWs)   bands (ev):

   -46.5069 -46.4925 -34.3476 -34.3448 -22.9110 -22.8879 -22.8057 -22.7735
   -22.7324 -22.6306  -9.3831  -8.8043  -8.6494  -8.0334  -7.7220  -7.6283
     2.8582   2.9194   3.0898   3.4426   3.5271   4.3203   4.6272   5.2797
     5.3662   6.1763   6.2628   6.4897   6.5948   6.7817   6.9329   7.0406
     7.3462   7.4019

     occupation numbers 
     1.0000   1.0000   1.0000   1.0000   1.0000   1.0000   1.0000   1.0000
     1.0000   1.0000   1.0000   1.0000   1.0000   1.0000   1.0000   1.0000
     1.0000   1.0000   1.0000   1.0000   1.0000   1.0000   1.0000   1.0000
     1.0000   1.0000   1.0000   1.0000   1.0000   1.0000   1.0000   1.0000
     1.0000   1.0000

          k =-0.1804-0.3125 0.1970 (  5492 PWs)   bands (ev):

   -46.5047 -46.4947 -34.3472 -34.3453 -22.9035 -22.8700 -22.8184 -22.7629
   -22.7438 -22.6495  -9.1969  -8.7216  -8.4376  -8.2989  -7.8458  -7.7661
     2.7986   3.0911   3.4680   3.6699   3.8419   4.1023   4.6415   4.8455
     5.2733   5.8068   6.1890   6.4539   6.5563   6.7362   6.8520   7.0768
     7.2172   7.3864

     occupation numbers 
     1.0000   1.0000   1.0000   1.0000   1.0000   1.0000   1.0000   1.0000
     1.0000   1.0000   1.0000   1.0000   1.0000   1.0000   1.0000   1.0000
     1.0000   1.0000   1.0000   1.0000   1.0000   1.0000   1.0000   1.0000
     1.0000   1.0000   1.0000   1.0000   1.0000   1.0000   1.0000   1.0000
     1.0000   1.0000

          k =-0.1804 0.7293-0.1313 (  5504 PWs)   bands (ev):

   -46.5011 -46.4982 -34.3466 -34.3460 -22.8756 -22.8633 -22.8352 -22.7782
   -22.7133 -22.6889  -8.8660  -8.6697  -8.5249  -8.1194  -8.0998  -8.0297
     2.9926   3.2395   3.4802   3.9078   4.1213   4.2485   4.4494   4.7211
     4.9953   5.4375   5.8980   6.2244   6.6455   6.8450   6.9098   7.0443
     7.2296   7.3233

     occupation numbers 
     1.0000   1.0000   1.0000   1.0000   1.0000   1.0000   1.0000   1.0000
     1.0000   1.0000   1.0000   1.0000   1.0000   1.0000   1.0000   1.0000
     1.0000   1.0000   1.0000   1.0000   1.0000   1.0000   1.0000   1.0000
     1.0000   1.0000   1.0000   1.0000   1.0000   1.0000   1.0000   1.0000
     1.0000   1.0000

          k =-0.1804 0.5209-0.0657 (  5496 PWs)   bands (ev):

   -46.5022 -46.4972 -34.3468 -34.3458 -22.8942 -22.8325 -22.8237 -22.7911
   -22.7404 -22.6724  -8.9814  -8.5131  -8.4198  -8.3159  -8.2277  -7.8466
     2.9338   3.3579   3.5218   3.6669   3.8846   4.3146   4.5837   4.7787
     5.1089   5.4837   5.7778   6.4525   6.5276   6.7816   6.9375   7.1467
     7.2109   7.3582

     occupation numbers 
     1.0000   1.0000   1.0000   1.0000   1.0000   1.0000   1.0000   1.0000
     1.0000   1.0000   1.0000   1.0000   1.0000   1.0000   1.0000   1.0000
     1.0000   1.0000   1.0000   1.0000   1.0000   1.0000   1.0000   1.0000
     1.0000   1.0000   1.0000   1.0000   1.0000   1.0000   1.0000   1.0000
     1.0000   1.0000

          k =-0.1804 0.3125 0.0000 (  5498 PWs)   bands (ev):

   -46.5055 -46.4939 -34.3473 -34.3451 -22.9041 -22.8672 -22.7900 -22.7850
   -22.7548 -22.6463  -9.2375  -8.6962  -8.5875  -8.0919  -7.9437  -7.7011
     2.8348   3.0253   3.3793   3.4507   3.9507   4.3126   4.4494   4.6982
     5.3855   6.0341   6.2303   6.3578   6.7124   6.8562   6.9091   7.0990
     7.1650   7.4183

     occupation numbers 
     1.0000   1.0000   1.0000   1.0000   1.0000   1.0000   1.0000   1.0000
     1.0000   1.0000   1.0000   1.0000   1.0000   1.0000   1.0000   1.0000
     1.0000   1.0000   1.0000   1.0000   1.0000   1.0000   1.0000   1.0000
     1.0000   1.0000   1.0000   1.0000   1.0000   1.0000   1.0000   1.0000
     1.0000   1.0000

          k =-0.3609-0.2084 0.2627 (  5513 PWs)   bands (ev):

   -46.5040 -46.4953 -34.3471 -34.3454 -22.9174 -22.8795 -22.8659 -22.7283
   -22.7173 -22.6390  -9.2114  -8.7659  -8.5648  -8.1804  -7.7919  -7.7114
     2.8196   2.9666   3.1954   3.3739   3.9243   4.2767   4.9492   5.1441
     5.6362   5.8840   6.1081   6.3591   6.3811   6.5982   6.7000   7.0230
     7.0610   7.3160

     occupation numbers 
     1.0000   1.0000   1.0000   1.0000   1.0000   1.0000   1.0000   1.0000
     1.0000   1.0000   1.0000   1.0000   1.0000   1.0000   1.0000   1.0000
     1.0000   1.0000   1.0000   1.0000   1.0000   1.0000   1.0000   1.0000
     1.0000   1.0000   1.0000   1.0000   1.0000   1.0000   1.0000   1.0000
     1.0000   1.0000

          k =-0.3609 0.8334-0.0657 (  5515 PWs)   bands (ev):

   -46.5022 -46.4972 -34.3468 -34.3458 -22.9089 -22.9000 -22.8667 -22.7401
   -22.6811 -22.6535  -9.0700  -8.7866  -8.6804  -7.9596  -7.8936  -7.8346
     2.7592   2.9352   3.1703   3.4828   4.1679   4.5244   4.7422   5.1869
     5.4482   5.8356   6.0818   6.2359   6.3661   6.5886   6.7260   6.8445
     7.0933   7.3400

     occupation numbers 
     1.0000   1.0000   1.0000   1.0000   1.0000   1.0000   1.0000   1.0000
     1.0000   1.0000   1.0000   1.0000   1.0000   1.0000   1.0000   1.0000
     1.0000   1.0000   1.0000   1.0000   1.0000   1.0000   1.0000   1.0000
     1.0000   1.0000   1.0000   1.0000   1.0000   1.0000   1.0000   1.0000
     1.0000   1.0000

          k =-0.3609 0.6251 0.0000 (  5518 PWs)   bands (ev):

   -46.4997 -46.4997 -34.3463 -34.3463 -22.9099 -22.8783 -22.8320 -22.7759
   -22.6910 -22.6665  -8.9202  -8.7972  -8.5027  -8.1539  -8.0607  -7.8295
     2.8015   2.9968   3.4671   3.7791   4.1166   4.2202   4.6878   5.0214
     5.2902   5.6015   5.9320   6.1948   6.5929   6.6524   6.7349   7.0359
     7.1050   7.3459

     occupation numbers 
     1.0000   1.0000   1.0000   1.0000   1.0000   1.0000   1.0000   1.0000
     1.0000   1.0000   1.0000   1.0000   1.0000   1.0000   1.0000   1.0000
     1.0000   1.0000   1.0000   1.0000   1.0000   1.0000   1.0000   1.0000
     1.0000   1.0000   1.0000   1.0000   1.0000   1.0000   1.0000   1.0000
     1.0000   1.0000

          k = 0.5413 0.3125-0.3940 (  5526 PWs)   bands (ev):

   -46.5025 -46.4968 -34.3469 -34.3457 -22.9209 -22.9138 -22.8799 -22.7258
   -22.6677 -22.6399  -9.1463  -8.8369  -8.7322  -7.9001  -7.8146  -7.7516
     2.7983   2.8069   2.9601   3.1283   4.4772   4.7246   5.0452   5.4182
     5.4900   5.6136   6.0785   6.1077   6.4326   6.5072   6.7173   6.8205
     7.0255   7.2780

     occupation numbers 
     1.0000   1.0000   1.0000   1.0000   1.0000   1.0000   1.0000   1.0000
     1.0000   1.0000   1.0000   1.0000   1.0000   1.0000   1.0000   1.0000
     1.0000   1.0000   1.0000   1.0000   1.0000   1.0000   1.0000   1.0000
     1.0000   1.0000   1.0000   1.0000   1.0000   1.0000   1.0000   1.0000
     1.0000   1.0000

          k =-0.0000 0.0000 0.1970 (  5509 PWs)   bands (ev):

   -46.5072 -46.4922 -34.3476 -34.3448 -22.8967 -22.8967 -22.8193 -22.7467
   -22.7467 -22.6330  -9.4054  -8.7491  -8.7491  -7.9650  -7.6816  -7.6816
     2.9567   2.9567   3.1833   3.3754   3.3754   4.2173   5.0979   5.1540
     5.1540   6.2349   6.2349   6.3062   6.4827   6.8607   6.8607   6.9914
     7.4840   7.4840

     occupation numbers 
     1.0000   1.0000   1.0000   1.0000   1.0000   1.0000   1.0000   1.0000
     1.0000   1.0000   1.0000   1.0000   1.0000   1.0000   1.0000   1.0000
     1.0000   1.0000   1.0000   1.0000   1.0000   1.0000   1.0000   1.0000
     1.0000   1.0000   1.0000   1.0000   1.0000   1.0000   1.0000   1.0000
     1.0000   1.0000

          k =-0.0000-0.2084 0.2627 (  5496 PWs)   bands (ev):

   -46.5055 -46.4939 -34.3473 -34.3451 -22.9043 -22.8633 -22.7920 -22.7821
   -22.7557 -22.6473  -9.2595  -8.6852  -8.5778  -8.1567  -7.8996  -7.7020
     2.8680   3.1006   3.4087   3.6512   3.8333   4.3644   4.5903   4.7552
     5.1555   5.6939   6.1269   6.3811   6.4668   6.8329   7.0001   7.0423
     7.3391   7.3870

     occupation numbers 
     1.0000   1.0000   1.0000   1.0000   1.0000   1.0000   1.0000   1.0000
     1.0000   1.0000   1.0000   1.0000   1.0000   1.0000   1.0000   1.0000
     1.0000   1.0000   1.0000   1.0000   1.0000   1.0000   1.0000   1.0000
     1.0000   1.0000   1.0000   1.0000   1.0000   1.0000   1.0000   1.0000
     1.0000   1.0000

          k =-0.0000 0.8334-0.0657 (  5505 PWs)   bands (ev):

   -46.5022 -46.4972 -34.3467 -34.3458 -22.8955 -22.8285 -22.8192 -22.7941
   -22.7426 -22.6725  -8.9907  -8.5133  -8.4776  -8.2927  -8.1862  -7.8591
     2.8887   3.3114   3.7698   3.9102   4.0340   4.3097   4.3150   4.8262
     4.9910   5.1186   5.8722   6.3380   6.6562   6.7046   7.0006   7.0914
     7.2332   7.2684

     occupation numbers 
     1.0000   1.0000   1.0000   1.0000   1.0000   1.0000   1.0000   1.0000
     1.0000   1.0000   1.0000   1.0000   1.0000   1.0000   1.0000   1.0000
     1.0000   1.0000   1.0000   1.0000   1.0000   1.0000   1.0000   1.0000
     1.0000   1.0000   1.0000   1.0000   1.0000   1.0000   1.0000   1.0000
     1.0000   1.0000

          k =-0.0000 0.6251 0.0000 (  5495 PWs)   bands (ev):

   -46.5011 -46.4982 -34.3466 -34.3460 -22.8727 -22.8648 -22.8389 -22.7752
   -22.7128 -22.6901  -8.8717  -8.6688  -8.5112  -8.1292  -8.1207  -8.0079
     3.1588   3.2634   3.3771   3.5838   4.0314   4.2946   4.6290   4.8657
     5.1870   5.4275   5.8298   6.0678   6.6235   6.8439   6.9235   7.0653
     7.1341   7.3668

     occupation numbers 
     1.0000   1.0000   1.0000   1.0000   1.0000   1.0000   1.0000   1.0000
     1.0000   1.0000   1.0000   1.0000   1.0000   1.0000   1.0000   1.0000
     1.0000   1.0000   1.0000   1.0000   1.0000   1.0000   1.0000   1.0000
     1.0000   1.0000   1.0000   1.0000   1.0000   1.0000   1.0000   1.0000
     1.0000   1.0000

          k =-0.0000 0.4167 0.0657 (  5497 PWs)   bands (ev):

   -46.5047 -46.4947 -34.3472 -34.3453 -22.9025 -22.8721 -22.8195 -22.7623
   -22.7430 -22.6494  -9.1904  -8.7284  -8.4200  -8.3051  -7.8584  -7.7570
     2.9368   3.0628   3.1454   3.7715   3.8163   4.0365   4.6601   4.9907
     5.2768   5.9916   6.2584   6.4150   6.5295   6.6126   6.8918   7.0956
     7.1942   7.3877

     occupation numbers 
     1.0000   1.0000   1.0000   1.0000   1.0000   1.0000   1.0000   1.0000
     1.0000   1.0000   1.0000   1.0000   1.0000   1.0000   1.0000   1.0000
     1.0000   1.0000   1.0000   1.0000   1.0000   1.0000   1.0000   1.0000
     1.0000   1.0000   1.0000   1.0000   1.0000   1.0000   1.0000   1.0000
     1.0000   1.0000

          k =-0.1804-0.1042 0.3284 (  5488 PWs)   bands (ev):

   -46.5047 -46.4947 -34.3472 -34.3453 -22.9019 -22.8692 -22.8172 -22.7638
   -22.7425 -22.6507  -9.2198  -8.7090  -8.4099  -8.3478  -7.8579  -7.7452
     2.9992   3.0782   3.4558   3.7486   3.8027   4.1148   4.6726   4.9977
     5.1379   5.7113   5.9664   6.3487   6.4836   6.6559   6.7819   7.0696
     7.2688   7.4088

     occupation numbers 
     1.0000   1.0000   1.0000   1.0000   1.0000   1.0000   1.0000   1.0000
     1.0000   1.0000   1.0000   1.0000   1.0000   1.0000   1.0000   1.0000
     1.0000   1.0000   1.0000   1.0000   1.0000   1.0000   1.0000   1.0000
     1.0000   1.0000   1.0000   1.0000   1.0000   1.0000   1.0000   1.0000
     1.0000   1.0000

          k =-0.1804 0.9376 0.0000 (  5494 PWs)   bands (ev):

   -46.5026 -46.4968 -34.3468 -34.3457 -22.9082 -22.8640 -22.8439 -22.7598
   -22.7162 -22.6573  -9.0840  -8.6369  -8.5977  -8.1478  -8.0446  -7.7740
     2.8566   3.1637   3.4522   3.8572   3.9350   4.2891   4.5068   5.0023
     5.2678   5.5993   6.0245   6.2027   6.4005   6.6151   6.8030   7.0147
     7.1499   7.2952

     occupation numbers 
     1.0000   1.0000   1.0000   1.0000   1.0000   1.0000   1.0000   1.0000
     1.0000   1.0000   1.0000   1.0000   1.0000   1.0000   1.0000   1.0000
     1.0000   1.0000   1.0000   1.0000   1.0000   1.0000   1.0000   1.0000
     1.0000   1.0000   1.0000   1.0000   1.0000   1.0000   1.0000   1.0000
     1.0000   1.0000

          k =-0.1804 0.7293 0.0657 (  5509 PWs)   bands (ev):

   -46.4997 -46.4997 -34.3463 -34.3463 -22.8986 -22.8971 -22.8023 -22.8002
   -22.6776 -22.6769  -8.8847  -8.8687  -8.4030  -8.3026  -7.9171  -7.8955
     2.8814   2.9968   3.4171   3.6836   4.1698   4.5606   4.5796   4.8854
     5.1922   5.6302   6.1028   6.2158   6.3208   6.5913   6.8008   6.9847
     7.1536   7.2790

     occupation numbers 
     1.0000   1.0000   1.0000   1.0000   1.0000   1.0000   1.0000   1.0000
     1.0000   1.0000   1.0000   1.0000   1.0000   1.0000   1.0000   1.0000
     1.0000   1.0000   1.0000   1.0000   1.0000   1.0000   1.0000   1.0000
     1.0000   1.0000   1.0000   1.0000   1.0000   1.0000   1.0000   1.0000
     1.0000   1.0000

          k =-0.1804 0.5209 0.1313 (  5515 PWs)   bands (ev):

   -46.5026 -46.4968 -34.3469 -34.3457 -22.9082 -22.8657 -22.8464 -22.7599
   -22.7152 -22.6567  -9.0657  -8.6347  -8.5865  -8.1496  -8.0556  -7.7702
     2.8137   3.1726   3.3017   3.5989   3.9481   4.3601   4.5379   5.1223
     5.3147   5.8255   5.9483   6.2661   6.5494   6.7212   6.8152   6.9137
     7.1482   7.3663

     occupation numbers 
     1.0000   1.0000   1.0000   1.0000   1.0000   1.0000   1.0000   1.0000
     1.0000   1.0000   1.0000   1.0000   1.0000   1.0000   1.0000   1.0000
     1.0000   1.0000   1.0000   1.0000   1.0000   1.0000   1.0000   1.0000
     1.0000   1.0000   1.0000   1.0000   1.0000   1.0000   1.0000   1.0000
     1.0000   1.0000

          k = 0.7218 0.4167-0.3284 (  5508 PWs)   bands (ev):

   -46.5022 -46.4972 -34.3468 -34.3458 -22.9077 -22.8995 -22.8669 -22.7388
   -22.6813 -22.6544  -9.0856  -8.7959  -8.6683  -7.9611  -7.9124  -7.8167
     2.9531   3.0110   3.0359   3.4316   4.2584   4.4325   4.8426   5.1210
     5.6220   5.7211   6.0612   6.0788   6.4365   6.4711   6.7034   6.8006
     6.9764   7.3322

     occupation numbers 
     1.0000   1.0000   1.0000   1.0000   1.0000   1.0000   1.0000   1.0000
     1.0000   1.0000   1.0000   1.0000   1.0000   1.0000   1.0000   1.0000
     1.0000   1.0000   1.0000   1.0000   1.0000   1.0000   1.0000   1.0000
     1.0000   1.0000   1.0000   1.0000   1.0000   1.0000   1.0000   1.0000
     1.0000   1.0000

          k = 0.7218 0.2084-0.2627 (  5517 PWs)   bands (ev):

   -46.5011 -46.4982 -34.3466 -34.3460 -22.9127 -22.9104 -22.8442 -22.7581
   -22.6673 -22.6580  -9.0127  -8.8764  -8.5799  -8.0898  -7.8652  -7.8050
     2.7999   2.8254   3.1906   3.7070   3.9809   4.7187   4.9015   5.0888
     5.5530   5.6958   5.9349   6.0831   6.3397   6.5037   6.8014   6.8990
     7.0222   7.3146

     occupation numbers 
     1.0000   1.0000   1.0000   1.0000   1.0000   1.0000   1.0000   1.0000
     1.0000   1.0000   1.0000   1.0000   1.0000   1.0000   1.0000   1.0000
     1.0000   1.0000   1.0000   1.0000   1.0000   1.0000   1.0000   1.0000
     1.0000   1.0000   1.0000   1.0000   1.0000   1.0000   1.0000   1.0000
     1.0000   1.0000

          k = 0.7218-0.0000-0.1970 (  5512 PWs)   bands (ev):

   -46.4997 -46.4997 -34.3463 -34.3463 -22.8980 -22.8980 -22.8019 -22.8019
   -22.6769 -22.6769  -8.8713  -8.8713  -8.3568  -8.3568  -7.9040  -7.9040
     2.8910   2.8910   3.5741   3.5741   4.2984   4.2984   4.7430   4.7430
     5.4102   5.4102   6.2058   6.2058   6.5202   6.5202   6.8941   6.8941
     7.2495   7.2495

     occupation numbers 
     1.0000   1.0000   1.0000   1.0000   1.0000   1.0000   1.0000   1.0000
     1.0000   1.0000   1.0000   1.0000   1.0000   1.0000   1.0000   1.0000
     1.0000   1.0000   1.0000   1.0000   1.0000   1.0000   1.0000   1.0000
     1.0000   1.0000   1.0000   1.0000   1.0000   1.0000   1.0000   1.0000
     1.0000   1.0000

          k = 0.5413 0.3125-0.1970 (  5512 PWs)   bands (ev):

   -46.5022 -46.4972 -34.3468 -34.3458 -22.9080 -22.9003 -22.8678 -22.7391
   -22.6810 -22.6540  -9.0722  -8.7891  -8.6733  -7.9646  -7.9033  -7.8222
     2.8826   2.9992   3.0388   3.2872   4.2415   4.5535   4.8787   5.1357
     5.5376   5.6914   6.1493   6.3051   6.4457   6.4593   6.7651   6.7840
     6.9777   7.3514

     occupation numbers 
     1.0000   1.0000   1.0000   1.0000   1.0000   1.0000   1.0000   1.0000
     1.0000   1.0000   1.0000   1.0000   1.0000   1.0000   1.0000   1.0000
     1.0000   1.0000   1.0000   1.0000   1.0000   1.0000   1.0000   1.0000
     1.0000   1.0000   1.0000   1.0000   1.0000   1.0000   1.0000   1.0000
     1.0000   1.0000

          k =-0.0000 0.0000 0.3940 (  5500 PWs)   bands (ev):

   -46.5041 -46.4954 -34.3470 -34.3454 -22.8658 -22.8658 -22.7818 -22.7792
   -22.7792 -22.6743  -9.1229  -8.5404  -8.5404  -8.2946  -7.9264  -7.9264
     3.2962   3.2962   3.5533   3.9311   3.9311   4.5531   4.5531   4.5746
     4.5913   5.5424   5.5424   5.8922   6.5502   6.9679   6.9679   6.9760
     7.3899   7.3899

     occupation numbers 
     1.0000   1.0000   1.0000   1.0000   1.0000   1.0000   1.0000   1.0000
     1.0000   1.0000   1.0000   1.0000   1.0000   1.0000   1.0000   1.0000
     1.0000   1.0000   1.0000   1.0000   1.0000   1.0000   1.0000   1.0000
     1.0000   1.0000   1.0000   1.0000   1.0000   1.0000   1.0000   1.0000
     1.0000   1.0000

          k =-0.0000 1.0418 0.0657 (  5500 PWs)   bands (ev):

   -46.5022 -46.4972 -34.3467 -34.3458 -22.8931 -22.8279 -22.8186 -22.7914
   -22.7439 -22.6740  -9.0217  -8.5352  -8.4529  -8.3005  -8.1936  -7.8453
     3.1007   3.4608   3.6946   3.9756   4.0112   4.2656   4.5048   4.8290
     4.9526   4.9796   5.6017   6.1307   6.5372   6.5934   7.0050   7.1501
     7.2049   7.2578

     occupation numbers 
     1.0000   1.0000   1.0000   1.0000   1.0000   1.0000   1.0000   1.0000
     1.0000   1.0000   1.0000   1.0000   1.0000   1.0000   1.0000   1.0000
     1.0000   1.0000   1.0000   1.0000   1.0000   1.0000   1.0000   1.0000
     1.0000   1.0000   1.0000   1.0000   1.0000   1.0000   1.0000   1.0000
     1.0000   1.0000

          k =-0.0000 0.8334 0.1313 (  5508 PWs)   bands (ev):

   -46.4997 -46.4997 -34.3463 -34.3462 -22.9099 -22.8750 -22.8338 -22.7722
   -22.6931 -22.6669  -8.9317  -8.8288  -8.4835  -8.1631  -8.0451  -7.8344
     2.8491   3.2565   3.3579   3.8141   4.1065   4.1464   4.8584   4.9773
     5.3840   5.4814   5.9898   6.0040   6.2789   6.6048   6.8572   6.8747
     7.0495   7.3396

     occupation numbers 
     1.0000   1.0000   1.0000   1.0000   1.0000   1.0000   1.0000   1.0000
     1.0000   1.0000   1.0000   1.0000   1.0000   1.0000   1.0000   1.0000
     1.0000   1.0000   1.0000   1.0000   1.0000   1.0000   1.0000   1.0000
     1.0000   1.0000   1.0000   1.0000   1.0000   1.0000   1.0000   1.0000
     1.0000   1.0000

          k = 0.9022 0.5209-0.2627 (  5497 PWs)   bands (ev):

   -46.5011 -46.4983 -34.3465 -34.3459 -22.8717 -22.8616 -22.8350 -22.7743
   -22.7148 -22.6918  -8.9182  -8.7045  -8.4896  -8.1343  -8.1117  -7.9955
     3.3831   3.3951   3.5051   3.9866   4.1127   4.2061   4.3950   4.6887
     5.0715   5.2898   5.6346   5.7764   6.6102   6.6974   6.8858   7.0549
     7.0966   7.3269

     occupation numbers 
     1.0000   1.0000   1.0000   1.0000   1.0000   1.0000   1.0000   1.0000
     1.0000   1.0000   1.0000   1.0000   1.0000   1.0000   1.0000   1.0000
     1.0000   1.0000   1.0000   1.0000   1.0000   1.0000   1.0000   1.0000
     1.0000   1.0000   1.0000   1.0000   1.0000   1.0000   1.0000   1.0000
     1.0000   1.0000

          k = 0.9022 0.3125-0.1970 (  5502 PWs)   bands (ev):

   -46.4997 -46.4997 -34.3463 -34.3463 -22.8968 -22.8968 -22.8003 -22.8003
   -22.6780 -22.6780  -8.8949  -8.8949  -8.3482  -8.3482  -7.9039  -7.9039
     3.0419   3.0419   3.5418   3.5418   4.4258   4.4258   4.6549   4.6549
     5.4209   5.4209   5.9960   5.9960   6.4519   6.4519   6.8268   6.8268
     7.2087   7.2087

     occupation numbers 
     1.0000   1.0000   1.0000   1.0000   1.0000   1.0000   1.0000   1.0000
     1.0000   1.0000   1.0000   1.0000   1.0000   1.0000   1.0000   1.0000
     1.0000   1.0000   1.0000   1.0000   1.0000   1.0000   1.0000   1.0000
     1.0000   1.0000   1.0000   1.0000   1.0000   1.0000   1.0000   1.0000
     1.0000   1.0000

          k =-0.0000 0.0000-0.5911 (  5512 PWs)   bands (ev):

   -46.4997 -46.4997 -34.3462 -34.3462 -22.8229 -22.8229 -22.8229 -22.8229
   -22.7290 -22.7290  -8.7204  -8.7204  -8.2423  -8.2423  -8.2423  -8.2423
     3.8552   3.8552   3.8552   3.8552   4.0455   4.0455   4.7147   4.7147
     4.7147   4.7147   5.1756   5.1756   6.8145   6.8145   7.1814   7.1814
     7.1814   7.1814

     occupation numbers 
     1.0000   1.0000   1.0000   1.0000   1.0000   1.0000   1.0000   1.0000
     1.0000   1.0000   1.0000   1.0000   1.0000   1.0000   1.0000   1.0000
     1.0000   1.0000   1.0000   1.0000   1.0000   1.0000   1.0000   1.0000
     1.0000   1.0000   1.0000   1.0000   1.0000   1.0000   1.0000   1.0000
     1.0000   1.0000

     highest occupied level (ev):     7.4840

!    total energy              =    -936.83711928 Ry
     estimated scf accuracy    <          2.6E-13 Ry

     The total energy is the sum of the following terms:
     one-electron contribution =    -137.29591662 Ry
     hartree contribution      =     104.01599464 Ry
     xc contribution           =    -108.39176108 Ry
     ewald contribution        =    -331.70940122 Ry
     one-center paw contrib.   =    -463.45603500 Ry
      -> PAW hartree energy AE =     295.31173375 Ry
      -> PAW hartree energy PS =    -293.78465418 Ry
      -> PAW xc energy AE      =    -560.95059289 Ry
      -> PAW xc energy PS      =      95.96747832 Ry
      -> total E_H with PAW    =     105.54307421 Ry
      -> total E_XC with PAW   =    -573.37487565 Ry

     convergence has been achieved in  26 iterations

     Forces acting on atoms (cartesian axes, Ry/au):

     atom    1 type  1   force =     0.00000000   -0.00000000    0.00145880
     atom    2 type  1   force =     0.00000000   -0.00000000    0.00145880
     atom    3 type  2   force =    -0.00814196    0.00427346    0.00061592
     atom    4 type  2   force =     0.00037006   -0.00918788    0.00061592
     atom    5 type  2   force =     0.00777191    0.00491442    0.00061592
     atom    6 type  2   force =    -0.00037006   -0.00918788    0.00061592
     atom    7 type  2   force =     0.00814196    0.00427346    0.00061592
     atom    8 type  2   force =    -0.00777191    0.00491442    0.00061592
     atom    9 type  3   force =    -0.00000000    0.00000000   -0.00330657
     atom   10 type  3   force =    -0.00000000    0.00000000   -0.00330657
     The non-local contrib.  to forces
     atom    1 type  1   force =     0.00000000    0.00000000    0.01572543
     atom    2 type  1   force =     0.00000000    0.00000000    0.01572543
     atom    3 type  2   force =     0.31828260   -0.15809344   -0.05070880
     atom    4 type  2   force =    -0.02222837    0.35468754   -0.05070880
     atom    5 type  2   force =    -0.29605424   -0.19659410   -0.05070880
     atom    6 type  2   force =     0.02222837    0.35468754   -0.05070880
     atom    7 type  2   force =    -0.31828260   -0.15809344   -0.05070880
     atom    8 type  2   force =     0.29605424   -0.19659410   -0.05070880
     atom    9 type  3   force =    -0.00000000    0.00000000   -0.01640252
     atom   10 type  3   force =    -0.00000000   -0.00000000   -0.01640252
     The ionic contribution  to forces
     atom    1 type  1   force =    -0.00000000   -0.00000000   -1.02295433
     atom    2 type  1   force =    -0.00000000   -0.00000000   -1.02295433
     atom    3 type  2   force =    -3.75179519    2.68969797    0.45236217
     atom    4 type  2   force =    -0.45344918   -4.59399893    0.45236217
     atom    5 type  2   force =     4.20524436    1.90430096    0.45236217
     atom    6 type  2   force =     0.45344917   -4.59399893    0.45236217
     atom    7 type  2   force =     3.75179519    2.68969797    0.45236217
     atom    8 type  2   force =    -4.20524436    1.90430096    0.45236217
     atom    9 type  3   force =     0.00000000   -0.00000000   -0.33413218
     atom   10 type  3   force =     0.00000000    0.00000000   -0.33413218
     The local contribution  to forces
     atom    1 type  1   force =     0.00000000   -0.00000000    1.00868773
     atom    2 type  1   force =    -0.00000000    0.00000000    1.00868773
     atom    3 type  2   force =     3.42645882   -2.52862232   -0.40093860
     atom    4 type  2   force =     0.47662176    4.23171154   -0.40093860
     atom    5 type  2   force =    -3.90308057   -1.70308922   -0.40093860
     atom    6 type  2   force =    -0.47662176    4.23171154   -0.40093860
     atom    7 type  2   force =    -3.42645881   -2.52862232   -0.40093860
     atom    8 type  2   force =     3.90308057   -1.70308922   -0.40093860
     atom    9 type  3   force =    -0.00000000    0.00000000    0.35241119
     atom   10 type  3   force =    -0.00000000    0.00000000    0.35241120
     The core correction contribution to forces
     atom    1 type  1   force =     0.00000000    0.00000000    0.00000000
     atom    2 type  1   force =     0.00000000    0.00000000    0.00000000
     atom    3 type  2   force =    -0.00108797    0.00129117   -0.00009883
     atom    4 type  2   force =    -0.00057420   -0.00158779   -0.00009883
     atom    5 type  2   force =     0.00166217    0.00029663   -0.00009883
     atom    6 type  2   force =     0.00057420   -0.00158779   -0.00009883
     atom    7 type  2   force =     0.00108797    0.00129117   -0.00009883
     atom    8 type  2   force =    -0.00166217    0.00029663   -0.00009883
     atom    9 type  3   force =     0.00000000    0.00000000   -0.00518303
     atom   10 type  3   force =    -0.00000000   -0.00000000   -0.00518303
     The Hubbard contrib.    to forces
     atom    1 type  1   force =     0.00000000    0.00000000    0.00000000
     atom    2 type  1   force =     0.00000000    0.00000000    0.00000000
     atom    3 type  2   force =     0.00000000    0.00000000    0.00000000
     atom    4 type  2   force =     0.00000000    0.00000000    0.00000000
     atom    5 type  2   force =     0.00000000    0.00000000    0.00000000
     atom    6 type  2   force =     0.00000000    0.00000000    0.00000000
     atom    7 type  2   force =     0.00000000    0.00000000    0.00000000
     atom    8 type  2   force =     0.00000000    0.00000000    0.00000000
     atom    9 type  3   force =     0.00000000    0.00000000    0.00000000
     atom   10 type  3   force =     0.00000000    0.00000000    0.00000000
     The SCF correction term to forces
     atom    1 type  1   force =    -0.00000000   -0.00000000   -0.00000001
     atom    2 type  1   force =    -0.00000000    0.00000000   -0.00000001
     atom    3 type  2   force =    -0.00000022    0.00000008    0.00000000
     atom    4 type  2   force =     0.00000004   -0.00000023    0.00000000
     atom    5 type  2   force =     0.00000018    0.00000015    0.00000000
     atom    6 type  2   force =    -0.00000004   -0.00000023    0.00000000
     atom    7 type  2   force =     0.00000022    0.00000008    0.00000000
     atom    8 type  2   force =    -0.00000018    0.00000015    0.00000000
     atom    9 type  3   force =    -0.00000000   -0.00000000   -0.00000002
     atom   10 type  3   force =    -0.00000000    0.00000000   -0.00000002

     Total force =     0.023146     Total SCF correction =     0.000001


     Computing stress (Cartesian axis) and pressure

          total   stress  (Ry/bohr**3)                   (kbar)     P=       31.72
   0.00030483   0.00000000   0.00000000           44.84        0.00        0.00
   0.00000000   0.00030483   0.00000000            0.00       44.84        0.00
   0.00000000   0.00000000   0.00003722            0.00        0.00        5.48

     kinetic stress (kbar)  27107.40     -0.00      0.00
                                0.00  27107.40      0.00
                               -0.00      0.00  27027.52

     local   stress (kbar) -12789.75     -0.00      0.00
                               -0.00 -12789.75      0.00
                                0.00      0.00 -11450.21

     nonloc. stress (kbar)   7050.23      0.00     -0.00
                               -0.00   7050.23      0.00
                               -0.00      0.00   7089.99

     hartree stress (kbar)   7363.14     -0.00     -0.00
                               -0.00   7363.14      0.00
                               -0.00      0.00   7089.95

     exc-cor stress (kbar)   1085.65      0.00     -0.00
                                0.00   1085.65     -0.00
                               -0.00     -0.00   1083.04

     corecor stress (kbar)  -6935.15     -0.00      0.00
                               -0.00  -6935.15      0.00
                                0.00      0.00  -6935.74

     ewald   stress (kbar) -22836.68      0.00     -0.00
                                0.00 -22836.68     -0.00
                               -0.00     -0.00 -23899.07

     hubbard stress (kbar)      0.00      0.00      0.00
                                0.00      0.00      0.00
                                0.00      0.00      0.00

     DFT-D   stress (kbar)      0.00      0.00      0.00
                                0.00      0.00      0.00
                                0.00      0.00      0.00

     XDM     stress (kbar)      0.00      0.00      0.00
                                0.00      0.00      0.00
                                0.00      0.00      0.00

     dft-nl  stress (kbar)      0.00      0.00      0.00
                                0.00      0.00      0.00
                                0.00      0.00      0.00

     TS-vdW  stress (kbar)      0.00      0.00      0.00
                                0.00      0.00      0.00
                                0.00      0.00      0.00

     MDB     stress (kbar)      0.00      0.00      0.00
                                0.00      0.00      0.00
                                0.00      0.00      0.00

     3D-RISM stress (kbar)      0.00      0.00      0.00
                                0.00      0.00      0.00
                                0.00      0.00      0.00

     Message from routine punch:
     Nothing written, as per user request (disk_io='none')
 
     init_run     :      0.57s CPU      0.82s WALL (       1 calls)
     electrons    :     17.14s CPU     17.58s WALL (       1 calls)
     forces       :      0.07s CPU      0.08s WALL (       1 calls)
     stress       :      0.16s CPU      0.16s WALL (       1 calls)

     Called by init_run:
     wfcinit      :      0.19s CPU      0.29s WALL (       1 calls)
     wfcinit:atom :      0.03s CPU      0.03s WALL (      32 calls)
     wfcinit:wfcr :      0.13s CPU      0.21s WALL (      32 calls)
     potinit      :      0.10s CPU      0.14s WALL (       1 calls)
     hinit0       :      0.20s CPU      0.24s WALL (       1 calls)

     Called by electrons:
     c_bands      :     12.77s CPU     13.06s WALL (      26 calls)
     sum_band     :      1.81s CPU      1.83s WALL (      26 calls)
     v_of_rho     :      0.10s CPU      0.15s WALL (      27 calls)
     v_h          :      0.04s CPU      0.07s WALL (      27 calls)
     v_xc         :      0.07s CPU      0.08s WALL (      29 calls)
     newd         :      0.26s CPU      0.30s WALL (      27 calls)
     PAW_pot      :      2.00s CPU      2.06s WALL (      27 calls)
     mix_rho      :      0.18s CPU      0.19s WALL (      26 calls)

     Called by c_bands:
     init_us_2    :      0.56s CPU      0.57s WALL (    1760 calls)
     cegterg      :     11.49s CPU     11.74s WALL (     832 calls)

     Called by sum_band:
     sum_band:wei :      0.00s CPU      0.00s WALL (      26 calls)
     sum_band:loo :      1.39s CPU      1.40s WALL (      26 calls)
     sum_band:buf :      0.25s CPU      0.26s WALL (     832 calls)
     sum_band:ini :      0.27s CPU      0.27s WALL (     832 calls)
     sum_band:cal :      0.01s CPU      0.01s WALL (     832 calls)
     sum_band:bec :      0.31s CPU      0.32s WALL (     832 calls)
     addusdens    :      0.27s CPU      0.28s WALL (      26 calls)
                                        0.27s GPU  (      26 calls)
     addusd:skk   :      0.01s CPU      0.01s WALL (      78 calls)
                                        0.01s GPU  (      78 calls)

     Called by *egterg:
     cdiaghg      :      5.00s CPU      5.14s WALL (    4415 calls)
                                        5.09s GPU  (    4415 calls)
     cegterg:over :      0.36s CPU      0.37s WALL (    3583 calls)
     cegterg:upda :      1.03s CPU      1.04s WALL (    3583 calls)
     cegterg:last :      0.14s CPU      0.14s WALL (    2355 calls)
     h_psi        :      3.28s CPU      3.51s WALL (    4447 calls)
     s_psi        :      1.14s CPU      1.16s WALL (    4447 calls)
     g_psi        :      0.07s CPU      0.07s WALL (    3583 calls)

     Called by h_psi:
     h_psi:calbec :      0.09s CPU      0.12s WALL (    4447 calls)
     vloc_psi     :      2.11s CPU      2.33s WALL (    4447 calls)
                                        2.28s GPU  (    4447 calls)
     add_vuspsi   :      0.96s CPU      0.98s WALL (    4447 calls)

     General routines
     calbec       :      0.10s CPU      0.13s WALL (    5823 calls)
     fft          :      0.04s CPU      0.08s WALL (     374 calls)
                                        0.04s GPU  (     347 calls)
     ffts         :      0.02s CPU      0.02s WALL (      53 calls)
                                        0.00s GPU  (      26 calls)
     fftw         :      0.15s CPU      1.41s WALL (   20200 calls)
                                        1.21s GPU  (   20200 calls)
     interpolate  :      0.08s CPU      0.12s WALL (      27 calls)
 
     Parallel routines

     PAW routines
     PAW_pot      :      2.00s CPU      2.06s WALL (      27 calls)
     PAW_symme    :      0.00s CPU      0.00s WALL (      53 calls)
 
     PWSCF        :     18.28s CPU     19.01s WALL

 
   This run was terminated on:  17: 5:55  29Nov2025            

=------------------------------------------------------------------------------=
   JOB DONE.
=------------------------------------------------------------------------------=
