
     Program PWSCF v.7.5 starts on 29Nov2025 at 17: 5:37 

     This program is part of the open-source Quantum ESPRESSO suite
     for quantum simulation of materials; please cite
         "P. Giannozzi et al., J. Phys.:Condens. Matter 21 395502 (2009);
         "P. Giannozzi et al., J. Phys.:Condens. Matter 29 465901 (2017);
         "P. Giannozzi et al., J. Chem. Phys. 152 154105 (2020);
          URL http://www.quantum-espresso.org", 
     in publications or presentations arising from this work. More details at
     http://www.quantum-espresso.org/quote

     Parallel version (MPI & OpenMP), running on       1 processor cores
     Number of MPI processes:                 1
     Threads/MPI process:                     1

     MPI processes distributed on     1 nodes
     1888897 MiB available memory on the printing compute node when the environment starts
 
     Reading input from espresso.pwi
Warning: card &CELL ignored
Warning: card &FCP ignored
Warning: card &RISM ignored

     Current dimensions of program PWSCF are:
     Max number of different atomic species (ntypx) = 10
     Max number of k-points (npk) =  40000
     Max angular momentum in pseudopotentials (lmaxx) =  4
     file O.pbesol-n-kjpaw_psl.0.1.UPF: wavefunction(s)  2P renormalized
     file Nb.pbesol-spn-kjpaw_psl.0.3.0.UPF: wavefunction(s)  4S 4P renormalized
     Message from routine setup:
     using ibrav=0 with symmetry is DISCOURAGED, use correct ibrav instead
 
     Subspace diagonalization in iterative solution of the eigenvalue problem:
     a serial algorithm will be used

 
     G-vector sticks info
     --------------------
     sticks:   dense  smooth     PW     G-vecs:    dense   smooth      PW
     Sum        2869    1711    497                97653    45331    7163
 
     Using Slab Decomposition
 


     bravais-lattice index     =            0
     lattice parameter (alat)  =      10.4952  a.u.
     unit-cell volume          =     722.6976 (a.u.)^3
     number of atoms/cell      =           10
     number of atomic types    =            3
     number of electrons       =        68.00
     number of Kohn-Sham states=           34
     kinetic-energy cutoff     =      60.0000  Ry
     charge density cutoff     =     400.0000  Ry
     scf convergence threshold =      1.0E-12
     mixing beta               =       0.7000
     number of iterations used =            8  plain     mixing
     Exchange-correlation= SLA  PW   PSX  PSC
                           (   1   4  10   8   0   0   0)

     GPU acceleration is ACTIVE.  1 visible GPUs per MPI rank


     GPU used by master process:

        Device Number: 0
        Device name: NVIDIA B200
        Compute capability : 100
        Ratio of single to double precision performance  : 16
        Memory Clock Rate (KHz): 3996000
        Memory Bus Width (bits): 7680
        Peak Memory Bandwidth (GB/s): ******

     celldm(1)=  10.495179  celldm(2)=   0.000000  celldm(3)=   0.000000
     celldm(4)=   0.000000  celldm(5)=   0.000000  celldm(6)=   0.000000

     crystal axes: (cart. coord. in units of alat)
               a(1) = (   0.461891   0.266673   0.845897 )  
               a(2) = (  -0.461891   0.266673   0.845897 )  
               a(3) = (   0.000000  -0.533346   0.845897 )  

     reciprocal axes: (cart. coord. in units 2 pi/alat)
               b(1) = (  1.082507  0.624986  0.394059 )  
               b(2) = ( -1.082507  0.624986  0.394059 )  
               b(3) = (  0.000000 -1.249971  0.394059 )  


     PseudoPot. # 1 for Li read from file:
     /home/qhossain/SSSP_1.3.0_PBEsol_efficiency/li_pbesol_v1.4.uspp.F.UPF
     MD5 check sum: aa28d9aeea6a965f2dc95ee9517b3536
     Pseudo is Ultrasoft, Zval =  3.0
     Generated by new atomic code, or converted to UPF format
     Using radial grid of  751 points,  5 beta functions with: 
                l(1) =   0
                l(2) =   0
                l(3) =   0
                l(4) =   1
                l(5) =   1
     Q(r) pseudized with 10 coefficients,  rinner =    1.150   1.150   1.150


     PseudoPot. # 2 for O  read from file:
     /home/qhossain/SSSP_1.3.0_PBEsol_efficiency/O.pbesol-n-kjpaw_psl.0.1.UPF
     MD5 check sum: 81d73d1479e654e5638b0319f0d6c2c7
     Pseudo is Projector augmented-wave + core cor, Zval =  6.0
     Generated using "atomic" code by A. Dal Corso  v.6.0 svn rev. 13079
     Shape of augmentation charge: BESSEL
     Using radial grid of 1095 points,  4 beta functions with: 
                l(1) =   0
                l(2) =   0
                l(3) =   1
                l(4) =   1
     Q(r) pseudized with 0 coefficients 


     PseudoPot. # 3 for Nb read from file:
     /home/qhossain/SSSP_1.3.0_PBEsol_efficiency/Nb.pbesol-spn-kjpaw_psl.0.3.0.UPF
     MD5 check sum: 3501bca1474143575298708b2d32ca28
     Pseudo is Projector augmented-wave + core cor, Zval = 13.0
     Generated using "atomic" code by A. Dal Corso  v.6.0 svn rev. 13079
     Shape of augmentation charge: PSQ
     Using radial grid of 1227 points,  6 beta functions with: 
                l(1) =   0
                l(2) =   0
                l(3) =   1
                l(4) =   1
                l(5) =   2
                l(6) =   2
     Q(r) pseudized with 0 coefficients 


     atomic species   valence    mass     pseudopotential
     Li                3.00     6.94000     Li( 1.00)
     O                 6.00    15.99900     O ( 1.00)
     Nb               13.00    92.90637     Nb( 1.00)

      6 Sym. Ops. (no inversion) found ( 3 have fractional translation)


                                    s                        frac. trans.

      isym =  1     identity                                     

 cryst.   s( 1) = (     1          0          0      )
                  (     0          1          0      )
                  (     0          0          1      )

 cart.    s( 1) = (  1.0000000 -0.0000000 -0.0000000 )
                  ( -0.0000000  1.0000000 -0.0000000 )
                  ( -0.0000000 -0.0000000  1.0000000 )


      isym =  2     120 deg rotation - cryst. axis [0,0,1]       

 cryst.   s( 2) = (     0          1          0      )
                  (     0          0          1      )
                  (     1          0          0      )

 cart.    s( 2) = ( -0.5000000 -0.8660254 -0.0000000 )
                  (  0.8660254 -0.5000000 -0.0000000 )
                  ( -0.0000000  0.0000000  1.0000000 )


      isym =  3     120 deg rotation - cryst. axis [0,0,-1]      

 cryst.   s( 3) = (     0          0          1      )
                  (     1          0          0      )
                  (     0          1          0      )

 cart.    s( 3) = ( -0.5000000  0.8660254  0.0000000 )
                  ( -0.8660254 -0.5000000 -0.0000000 )
                  (  0.0000000 -0.0000000  1.0000000 )


      isym =  4     inv. 180 deg rotation - cart. axis [1,0,0]   

 cryst.   s( 4) = (     0          1          0      )    f =( -0.5000000 )
                  (     1          0          0      )       ( -0.5000000 )
                  (     0          0          1      )       ( -0.5000000 )

 cart.    s( 4) = ( -1.0000000 -0.0000000 -0.0000000 )    f =( -0.0000000 )
                  ( -0.0000000  1.0000000 -0.0000000 )       (  0.0000000 )
                  (  0.0000000 -0.0000000  1.0000000 )       ( -1.2688462 )


      isym =  5     inv. 180 deg rotation - cryst. axis [0,1,0]  

 cryst.   s( 5) = (     1          0          0      )    f =( -0.5000000 )
                  (     0          0          1      )       ( -0.5000000 )
                  (     0          1          0      )       ( -0.5000000 )

 cart.    s( 5) = (  0.5000000  0.8660254  0.0000000 )    f =(  0.0000000 )
                  (  0.8660254 -0.5000000 -0.0000000 )       ( -0.0000000 )
                  ( -0.0000000 -0.0000000  1.0000000 )       ( -1.2688462 )


      isym =  6     inv. 180 deg rotation - cryst. axis [1,1,0]  

 cryst.   s( 6) = (     0          0          1      )    f =( -0.5000000 )
                  (     0          1          0      )       ( -0.5000000 )
                  (     1          0          0      )       ( -0.5000000 )

 cart.    s( 6) = (  0.5000000 -0.8660254 -0.0000000 )    f =( -0.0000000 )
                  ( -0.8660254 -0.5000000 -0.0000000 )       ( -0.0000000 )
                  (  0.0000000  0.0000000  1.0000000 )       ( -1.2688462 )


   Cartesian axes

     site n.     atom                  positions (alat units)
         1        Li     tau(   1) = (   0.0000000  -0.0000000   1.9881016  )
         2        Li     tau(   2) = (   0.0000000  -0.0000000   0.7192555  )
         3        O      tau(   3) = (  -0.2960632  -0.0377595   1.4365978  )
         4        O      tau(   4) = (   0.1807323  -0.2375185   1.4365978  )
         5        O      tau(   5) = (   0.1153309   0.2752780   1.4365978  )
         6        O      tau(   6) = (   0.2811585   0.0291543   1.0136491  )
         7        O      tau(   7) = (  -0.1658276   0.2289133   1.0136491  )
         8        O      tau(   8) = (  -0.1153309  -0.2580675   1.0136491  )
         9        Nb     tau(   9) = (  -0.0000000  -0.0000000   1.2715770  )
        10        Nb     tau(  10) = (   0.0000000  -0.0000000   0.0027309  )

   Crystallographic axes

     site n.     atom                  positions (cryst. coord.)
         1        Li     tau(   1) = (  0.7834289  0.7834289  0.7834289  )
         2        Li     tau(   2) = (  0.2834289  0.2834289  0.2834289  )
         3        O      tau(   3) = (  0.2220144  0.8629954  0.6133023  )
         4        O      tau(   4) = (  0.6133023  0.2220144  0.8629954  )
         5        O      tau(   5) = (  0.8629954  0.6133023  0.2220144  )
         6        O      tau(   6) = (  0.7220144  0.1133023  0.3629954  )
         7        O      tau(   7) = (  0.3629954  0.7220144  0.1133023  )
         8        O      tau(   8) = (  0.1133023  0.3629954  0.7220144  )
         9        Nb     tau(   9) = (  0.5010761  0.5010761  0.5010761  )
        10        Nb     tau(  10) = (  0.0010761  0.0010761  0.0010761  )

     number of k points=    32
                       cart. coord. in units 2pi/alat
        k(    1) = (   0.0000000   0.0000000   0.0000000), wk =   0.0092593
        k(    2) = (   0.0000000  -0.2083285   0.0656765), wk =   0.0555556
        k(    3) = (   0.0000000  -0.4166571   0.1313529), wk =   0.0555556
        k(    4) = (  -0.0000000   0.6249856  -0.1970294), wk =   0.0277778
        k(    5) = (  -0.1804178  -0.1041643   0.1313529), wk =   0.0555556
        k(    6) = (  -0.1804178  -0.3124928   0.1970294), wk =   0.1111111
        k(    7) = (  -0.1804178   0.7291499  -0.1313529), wk =   0.1111111
        k(    8) = (  -0.1804178   0.5208214  -0.0656765), wk =   0.1111111
        k(    9) = (  -0.1804178   0.3124928   0.0000000), wk =   0.0555556
        k(   10) = (  -0.3608356  -0.2083285   0.2627059), wk =   0.0555556
        k(   11) = (  -0.3608356   0.8333142  -0.0656765), wk =   0.1111111
        k(   12) = (  -0.3608356   0.6249856   0.0000000), wk =   0.0555556
        k(   13) = (   0.5412534   0.3124928  -0.3940588), wk =   0.0277778
        k(   14) = (   0.0000000   0.0000000   0.1970294), wk =   0.0185185
        k(   15) = (   0.0000000  -0.2083285   0.2627059), wk =   0.0555556
        k(   16) = (   0.0000000   0.8333142  -0.0656765), wk =   0.0555556
        k(   17) = (   0.0000000   0.6249856   0.0000000), wk =   0.0555556
        k(   18) = (   0.0000000   0.4166571   0.0656765), wk =   0.0555556
        k(   19) = (  -0.1804178  -0.1041643   0.3283823), wk =   0.0555556
        k(   20) = (  -0.1804178   0.9374785   0.0000000), wk =   0.1111111
        k(   21) = (  -0.1804178   0.7291499   0.0656765), wk =   0.1111111
        k(   22) = (  -0.1804178   0.5208214   0.1313529), wk =   0.1111111
        k(   23) = (   0.7216713   0.4166571  -0.3283823), wk =   0.0555556
        k(   24) = (   0.7216713   0.2083285  -0.2627059), wk =   0.1111111
        k(   25) = (   0.7216713  -0.0000000  -0.1970294), wk =   0.0555556
        k(   26) = (   0.5412534   0.3124928  -0.1970294), wk =   0.0555556
        k(   27) = (   0.0000000   0.0000000   0.3940588), wk =   0.0185185
        k(   28) = (   0.0000000   1.0416427   0.0656765), wk =   0.0555556
        k(   29) = (   0.0000000   0.8333142   0.1313529), wk =   0.0555556
        k(   30) = (   0.9020891   0.5208214  -0.2627059), wk =   0.0555556
        k(   31) = (   0.9020891   0.3124928  -0.1970294), wk =   0.0555556
        k(   32) = (  -0.0000000   0.0000000  -0.5910882), wk =   0.0092593

                       cryst. coord.
        k(    1) = (   0.0000000   0.0000000   0.0000000), wk =   0.0092593
        k(    2) = (  -0.0000000  -0.0000000   0.1666667), wk =   0.0555556
        k(    3) = (  -0.0000000  -0.0000000   0.3333333), wk =   0.0555556
        k(    4) = (  -0.0000000   0.0000000  -0.5000000), wk =   0.0277778
        k(    5) = (   0.0000000   0.1666667   0.1666667), wk =   0.0555556
        k(    6) = (  -0.0000000   0.1666667   0.3333333), wk =   0.1111111
        k(    7) = (  -0.0000000   0.1666667  -0.5000000), wk =   0.1111111
        k(    8) = (  -0.0000000   0.1666667  -0.3333333), wk =   0.1111111
        k(    9) = (  -0.0000000   0.1666667  -0.1666667), wk =   0.0555556
        k(   10) = (   0.0000000   0.3333333   0.3333333), wk =   0.0555556
        k(   11) = (  -0.0000000   0.3333333  -0.5000000), wk =   0.1111111
        k(   12) = (  -0.0000000   0.3333333  -0.3333333), wk =   0.0555556
        k(   13) = (   0.0000000  -0.5000000  -0.5000000), wk =   0.0277778
        k(   14) = (   0.1666667   0.1666667   0.1666667), wk =   0.0185185
        k(   15) = (   0.1666667   0.1666667   0.3333333), wk =   0.0555556
        k(   16) = (   0.1666667   0.1666667  -0.5000000), wk =   0.0555556
        k(   17) = (   0.1666667   0.1666667  -0.3333333), wk =   0.0555556
        k(   18) = (   0.1666667   0.1666667  -0.1666667), wk =   0.0555556
        k(   19) = (   0.1666667   0.3333333   0.3333333), wk =   0.0555556
        k(   20) = (   0.1666667   0.3333333  -0.5000000), wk =   0.1111111
        k(   21) = (   0.1666667   0.3333333  -0.3333333), wk =   0.1111111
        k(   22) = (   0.1666667   0.3333333  -0.1666667), wk =   0.1111111
        k(   23) = (   0.1666667  -0.5000000  -0.5000000), wk =   0.0555556
        k(   24) = (   0.1666667  -0.5000000  -0.3333333), wk =   0.1111111
        k(   25) = (   0.1666667  -0.5000000  -0.1666667), wk =   0.0555556
        k(   26) = (   0.1666667  -0.3333333  -0.3333333), wk =   0.0555556
        k(   27) = (   0.3333333   0.3333333   0.3333333), wk =   0.0185185
        k(   28) = (   0.3333333   0.3333333  -0.5000000), wk =   0.0555556
        k(   29) = (   0.3333333   0.3333333  -0.3333333), wk =   0.0555556
        k(   30) = (   0.3333333  -0.5000000  -0.5000000), wk =   0.0555556
        k(   31) = (   0.3333333  -0.5000000  -0.3333333), wk =   0.0555556
        k(   32) = (  -0.5000000  -0.5000000  -0.5000000), wk =   0.0092593

     Dense  grid:    97653 G-vectors     FFT dimensions: (  72,  72,  72)

     Smooth grid:    45331 G-vectors     FFT dimensions: (  54,  54,  54)

     Dynamical RAM for                 wfc:       2.94 MB

     Dynamical RAM for     wfc (w. buffer):      97.11 MB

     Dynamical RAM for           str. fact:       4.47 MB

     Dynamical RAM for           local pot:       0.00 MB

     Dynamical RAM for          nlocal pot:       8.83 MB

     Dynamical RAM for                qrad:       4.82 MB

     Dynamical RAM for          rho,v,vnew:      13.01 MB

     Dynamical RAM for               rhoin:       4.34 MB

     Dynamical RAM for            rho*nmix:      23.84 MB

     Dynamical RAM for           G-vectors:       5.93 MB

     Dynamical RAM for          h,s,v(r/c):       0.21 MB

     Dynamical RAM for          <psi|beta>:       0.05 MB

     Dynamical RAM for                 psi:       5.89 MB

     Dynamical RAM for                hpsi:       5.89 MB

     Dynamical RAM for                spsi:       5.89 MB

     Dynamical RAM for      wfcinit/wfcrot:       5.91 MB

     Dynamical RAM for           addusdens:     286.09 MB

     Dynamical RAM for          addusforce:     301.76 MB

     Dynamical RAM for         addusstress:     299.50 MB

     Estimated static dynamical RAM per process >     158.70 MB

     Estimated max dynamical RAM per process >     484.31 MB

     Check: negative core charge=   -0.000005

     Initial potential from superposition of free atoms

     starting charge      67.0945, renormalised to      68.0000
     Starting wfcs are   54 randomized atomic wfcs
     Checking if some PAW data can be deallocated... 

     total cpu time spent up to now is        1.1 secs

     per-process dynamical memory:   558.5 Mb

     Self-consistent Calculation
[tb_dev] Currently allocated     1.86E+00 Mbytes, locked:    0 /   3
[tb_pin] Currently allocated     0.00E+00 Mbytes, locked:    0 /   0

     iteration #  1     ecut=    60.00 Ry     beta= 0.70
     Davidson diagonalization with overlap

---- Real-time Memory Report at c_bands before calling an iterative solver
           984 MiB given to the printing process from OS
           545 MiB allocation reported by mallinfo(arena+hblkhd)
       1887950 MiB available memory on the node where the printing process lives
     GPU memory used/free/total (MiB): 2283 / 180358 / 182642
------------------
     ethr =  1.00E-02,  avg # of iterations =  1.1

     total cpu time spent up to now is        1.6 secs

     total energy              =    -934.44781714 Ry
     estimated scf accuracy    <       4.44703043 Ry
[tb_dev] Currently allocated     0.00E+00 Mbytes, locked:    0 /   0
[tb_pin] Currently allocated     0.00E+00 Mbytes, locked:    0 /   0

     iteration #  2     ecut=    60.00 Ry     beta= 0.70
     Davidson diagonalization with overlap

---- Real-time Memory Report at c_bands before calling an iterative solver
          1032 MiB given to the printing process from OS
           621 MiB allocation reported by mallinfo(arena+hblkhd)
       1887834 MiB available memory on the node where the printing process lives
     GPU memory used/free/total (MiB): 2283 / 180358 / 182642
------------------
     ethr =  6.54E-03,  avg # of iterations =  8.6

     total cpu time spent up to now is        2.7 secs

     total energy              =    -933.72441068 Ry
     estimated scf accuracy    <      16.42657901 Ry
[tb_dev] Currently allocated     0.00E+00 Mbytes, locked:    0 /   0
[tb_pin] Currently allocated     0.00E+00 Mbytes, locked:    0 /   0

     iteration #  3     ecut=    60.00 Ry     beta= 0.70
     Davidson diagonalization with overlap

---- Real-time Memory Report at c_bands before calling an iterative solver
          1037 MiB given to the printing process from OS
           625 MiB allocation reported by mallinfo(arena+hblkhd)
       1887839 MiB available memory on the node where the printing process lives
     GPU memory used/free/total (MiB): 2285 / 180356 / 182642
------------------
     ethr =  6.54E-03,  avg # of iterations =  6.2

     total cpu time spent up to now is        3.5 secs

     total energy              =    -936.72984959 Ry
     estimated scf accuracy    <       0.05383976 Ry
[tb_dev] Currently allocated     0.00E+00 Mbytes, locked:    0 /   0
[tb_pin] Currently allocated     0.00E+00 Mbytes, locked:    0 /   0

     iteration #  4     ecut=    60.00 Ry     beta= 0.70
     Davidson diagonalization with overlap

---- Real-time Memory Report at c_bands before calling an iterative solver
          1043 MiB given to the printing process from OS
           616 MiB allocation reported by mallinfo(arena+hblkhd)
       1887836 MiB available memory on the node where the printing process lives
     GPU memory used/free/total (MiB): 2285 / 180356 / 182642
------------------
     ethr =  7.92E-05,  avg # of iterations =  8.1

     total cpu time spent up to now is        4.5 secs

     total energy              =    -936.69518763 Ry
     estimated scf accuracy    <       0.29521982 Ry
[tb_dev] Currently allocated     0.00E+00 Mbytes, locked:    0 /   0
[tb_pin] Currently allocated     0.00E+00 Mbytes, locked:    0 /   0

     iteration #  5     ecut=    60.00 Ry     beta= 0.70
     Davidson diagonalization with overlap

---- Real-time Memory Report at c_bands before calling an iterative solver
          1047 MiB given to the printing process from OS
           628 MiB allocation reported by mallinfo(arena+hblkhd)
       1887820 MiB available memory on the node where the printing process lives
     GPU memory used/free/total (MiB): 2285 / 180356 / 182642
------------------
     ethr =  7.92E-05,  avg # of iterations =  8.8

     total cpu time spent up to now is        5.6 secs

     total energy              =    -936.79079595 Ry
     estimated scf accuracy    <       0.58382604 Ry
[tb_dev] Currently allocated     0.00E+00 Mbytes, locked:    0 /   0
[tb_pin] Currently allocated     0.00E+00 Mbytes, locked:    0 /   0

     iteration #  6     ecut=    60.00 Ry     beta= 0.70
     Davidson diagonalization with overlap

---- Real-time Memory Report at c_bands before calling an iterative solver
          1047 MiB given to the printing process from OS
           630 MiB allocation reported by mallinfo(arena+hblkhd)
       1887819 MiB available memory on the node where the printing process lives
     GPU memory used/free/total (MiB): 2285 / 180356 / 182642
------------------
     ethr =  7.92E-05,  avg # of iterations =  6.2

     total cpu time spent up to now is        6.4 secs

     total energy              =    -936.82290434 Ry
     estimated scf accuracy    <       0.05546618 Ry
[tb_dev] Currently allocated     0.00E+00 Mbytes, locked:    0 /   0
[tb_pin] Currently allocated     0.00E+00 Mbytes, locked:    0 /   0

     iteration #  7     ecut=    60.00 Ry     beta= 0.70
     Davidson diagonalization with overlap

---- Real-time Memory Report at c_bands before calling an iterative solver
          1051 MiB given to the printing process from OS
           632 MiB allocation reported by mallinfo(arena+hblkhd)
       1887824 MiB available memory on the node where the printing process lives
     GPU memory used/free/total (MiB): 2285 / 180356 / 182642
------------------
     ethr =  7.92E-05,  avg # of iterations =  4.7

     total cpu time spent up to now is        7.1 secs

     total energy              =    -936.83609917 Ry
     estimated scf accuracy    <       0.00008080 Ry
[tb_dev] Currently allocated     0.00E+00 Mbytes, locked:    0 /   0
[tb_pin] Currently allocated     0.00E+00 Mbytes, locked:    0 /   0

     iteration #  8     ecut=    60.00 Ry     beta= 0.70
     Davidson diagonalization with overlap

---- Real-time Memory Report at c_bands before calling an iterative solver
          1052 MiB given to the printing process from OS
           633 MiB allocation reported by mallinfo(arena+hblkhd)
       1887831 MiB available memory on the node where the printing process lives
     GPU memory used/free/total (MiB): 2285 / 180356 / 182642
------------------
     ethr =  1.19E-07,  avg # of iterations = 14.8

     total cpu time spent up to now is        8.7 secs

     total energy              =    -936.83722656 Ry
     estimated scf accuracy    <       0.00543812 Ry
[tb_dev] Currently allocated     0.00E+00 Mbytes, locked:    0 /   0
[tb_pin] Currently allocated     0.00E+00 Mbytes, locked:    0 /   0

     iteration #  9     ecut=    60.00 Ry     beta= 0.70
     Davidson diagonalization with overlap

---- Real-time Memory Report at c_bands before calling an iterative solver
          1054 MiB given to the printing process from OS
           635 MiB allocation reported by mallinfo(arena+hblkhd)
       1887850 MiB available memory on the node where the printing process lives
     GPU memory used/free/total (MiB): 2285 / 180356 / 182642
------------------
     ethr =  1.19E-07,  avg # of iterations =  8.3

     total cpu time spent up to now is        9.8 secs

     total energy              =    -936.83729806 Ry
     estimated scf accuracy    <       0.00064793 Ry
[tb_dev] Currently allocated     0.00E+00 Mbytes, locked:    0 /   0
[tb_pin] Currently allocated     0.00E+00 Mbytes, locked:    0 /   0

     iteration # 10     ecut=    60.00 Ry     beta= 0.70
     Davidson diagonalization with overlap

---- Real-time Memory Report at c_bands before calling an iterative solver
          1055 MiB given to the printing process from OS
           636 MiB allocation reported by mallinfo(arena+hblkhd)
       1887806 MiB available memory on the node where the printing process lives
     GPU memory used/free/total (MiB): 2285 / 180356 / 182642
------------------
     ethr =  1.19E-07,  avg # of iterations =  7.6

     total cpu time spent up to now is       10.8 secs

     total energy              =    -936.83752331 Ry
     estimated scf accuracy    <       0.00009465 Ry
[tb_dev] Currently allocated     0.00E+00 Mbytes, locked:    0 /   0
[tb_pin] Currently allocated     0.00E+00 Mbytes, locked:    0 /   0

     iteration # 11     ecut=    60.00 Ry     beta= 0.70
     Davidson diagonalization with overlap

---- Real-time Memory Report at c_bands before calling an iterative solver
          1056 MiB given to the printing process from OS
           636 MiB allocation reported by mallinfo(arena+hblkhd)
       1887804 MiB available memory on the node where the printing process lives
     GPU memory used/free/total (MiB): 2285 / 180356 / 182642
------------------
     ethr =  1.19E-07,  avg # of iterations =  1.0

     total cpu time spent up to now is       11.2 secs

     total energy              =    -936.83749100 Ry
     estimated scf accuracy    <       0.00008534 Ry
[tb_dev] Currently allocated     0.00E+00 Mbytes, locked:    0 /   0
[tb_pin] Currently allocated     0.00E+00 Mbytes, locked:    0 /   0

     iteration # 12     ecut=    60.00 Ry     beta= 0.70
     Davidson diagonalization with overlap

---- Real-time Memory Report at c_bands before calling an iterative solver
          1056 MiB given to the printing process from OS
           636 MiB allocation reported by mallinfo(arena+hblkhd)
       1887803 MiB available memory on the node where the printing process lives
     GPU memory used/free/total (MiB): 2285 / 180356 / 182642
------------------
     ethr =  1.19E-07,  avg # of iterations =  2.3

     total cpu time spent up to now is       11.7 secs

     total energy              =    -936.83749962 Ry
     estimated scf accuracy    <       0.00000971 Ry
[tb_dev] Currently allocated     0.00E+00 Mbytes, locked:    0 /   0
[tb_pin] Currently allocated     0.00E+00 Mbytes, locked:    0 /   0

     iteration # 13     ecut=    60.00 Ry     beta= 0.70
     Davidson diagonalization with overlap

---- Real-time Memory Report at c_bands before calling an iterative solver
          1056 MiB given to the printing process from OS
           626 MiB allocation reported by mallinfo(arena+hblkhd)
       1887800 MiB available memory on the node where the printing process lives
     GPU memory used/free/total (MiB): 2285 / 180356 / 182642
------------------
     ethr =  1.43E-08,  avg # of iterations =  5.0

     total cpu time spent up to now is       12.5 secs

     total energy              =    -936.83750235 Ry
     estimated scf accuracy    <       0.00000063 Ry
[tb_dev] Currently allocated     0.00E+00 Mbytes, locked:    0 /   0
[tb_pin] Currently allocated     0.00E+00 Mbytes, locked:    0 /   0

     iteration # 14     ecut=    60.00 Ry     beta= 0.70
     Davidson diagonalization with overlap

---- Real-time Memory Report at c_bands before calling an iterative solver
          1056 MiB given to the printing process from OS
           636 MiB allocation reported by mallinfo(arena+hblkhd)
       1887795 MiB available memory on the node where the printing process lives
     GPU memory used/free/total (MiB): 2285 / 180356 / 182642
------------------
     ethr =  9.30E-10,  avg # of iterations =  6.3

     total cpu time spent up to now is       13.4 secs

     total energy              =    -936.83750302 Ry
     estimated scf accuracy    <       0.00000049 Ry
[tb_dev] Currently allocated     0.00E+00 Mbytes, locked:    0 /   0
[tb_pin] Currently allocated     0.00E+00 Mbytes, locked:    0 /   0

     iteration # 15     ecut=    60.00 Ry     beta= 0.70
     Davidson diagonalization with overlap

---- Real-time Memory Report at c_bands before calling an iterative solver
          1056 MiB given to the printing process from OS
           636 MiB allocation reported by mallinfo(arena+hblkhd)
       1887789 MiB available memory on the node where the printing process lives
     GPU memory used/free/total (MiB): 2285 / 180356 / 182642
------------------
     ethr =  7.14E-10,  avg # of iterations =  1.0

     total cpu time spent up to now is       13.8 secs

     total energy              =    -936.83750294 Ry
     estimated scf accuracy    <       0.00000042 Ry
[tb_dev] Currently allocated     0.00E+00 Mbytes, locked:    0 /   0
[tb_pin] Currently allocated     0.00E+00 Mbytes, locked:    0 /   0

     iteration # 16     ecut=    60.00 Ry     beta= 0.70
     Davidson diagonalization with overlap

---- Real-time Memory Report at c_bands before calling an iterative solver
          1056 MiB given to the printing process from OS
           636 MiB allocation reported by mallinfo(arena+hblkhd)
       1887788 MiB available memory on the node where the printing process lives
     GPU memory used/free/total (MiB): 2285 / 180356 / 182642
------------------
     ethr =  6.24E-10,  avg # of iterations =  1.1

     total cpu time spent up to now is       14.2 secs

     total energy              =    -936.83750291 Ry
     estimated scf accuracy    <       0.00000021 Ry
[tb_dev] Currently allocated     0.00E+00 Mbytes, locked:    0 /   0
[tb_pin] Currently allocated     0.00E+00 Mbytes, locked:    0 /   0

     iteration # 17     ecut=    60.00 Ry     beta= 0.70
     Davidson diagonalization with overlap

---- Real-time Memory Report at c_bands before calling an iterative solver
          1056 MiB given to the printing process from OS
           636 MiB allocation reported by mallinfo(arena+hblkhd)
       1887787 MiB available memory on the node where the printing process lives
     GPU memory used/free/total (MiB): 2285 / 180356 / 182642
------------------
     ethr =  3.10E-10,  avg # of iterations =  2.0

     total cpu time spent up to now is       14.7 secs

     total energy              =    -936.83750290 Ry
     estimated scf accuracy    <       0.00000011 Ry
[tb_dev] Currently allocated     0.00E+00 Mbytes, locked:    0 /   0
[tb_pin] Currently allocated     0.00E+00 Mbytes, locked:    0 /   0

     iteration # 18     ecut=    60.00 Ry     beta= 0.70
     Davidson diagonalization with overlap

---- Real-time Memory Report at c_bands before calling an iterative solver
          1056 MiB given to the printing process from OS
           636 MiB allocation reported by mallinfo(arena+hblkhd)
       1887784 MiB available memory on the node where the printing process lives
     GPU memory used/free/total (MiB): 2285 / 180356 / 182642
------------------
     ethr =  1.55E-10,  avg # of iterations =  4.9

     total cpu time spent up to now is       15.4 secs

     total energy              =    -936.83750292 Ry
     estimated scf accuracy    <          8.7E-09 Ry
[tb_dev] Currently allocated     0.00E+00 Mbytes, locked:    0 /   0
[tb_pin] Currently allocated     0.00E+00 Mbytes, locked:    0 /   0

     iteration # 19     ecut=    60.00 Ry     beta= 0.70
     Davidson diagonalization with overlap

---- Real-time Memory Report at c_bands before calling an iterative solver
          1056 MiB given to the printing process from OS
           636 MiB allocation reported by mallinfo(arena+hblkhd)
       1887752 MiB available memory on the node where the printing process lives
     GPU memory used/free/total (MiB): 2285 / 180356 / 182642
------------------
     ethr =  1.27E-11,  avg # of iterations =  5.3

     total cpu time spent up to now is       16.1 secs

     total energy              =    -936.83750292 Ry
     estimated scf accuracy    <          1.0E-09 Ry
[tb_dev] Currently allocated     0.00E+00 Mbytes, locked:    0 /   0
[tb_pin] Currently allocated     0.00E+00 Mbytes, locked:    0 /   0

     iteration # 20     ecut=    60.00 Ry     beta= 0.70
     Davidson diagonalization with overlap

---- Real-time Memory Report at c_bands before calling an iterative solver
          1056 MiB given to the printing process from OS
           636 MiB allocation reported by mallinfo(arena+hblkhd)
       1887750 MiB available memory on the node where the printing process lives
     GPU memory used/free/total (MiB): 2285 / 180356 / 182642
------------------
     ethr =  1.52E-12,  avg # of iterations =  4.3

     total cpu time spent up to now is       16.8 secs

     total energy              =    -936.83750292 Ry
     estimated scf accuracy    <          3.6E-09 Ry
[tb_dev] Currently allocated     0.00E+00 Mbytes, locked:    0 /   0
[tb_pin] Currently allocated     0.00E+00 Mbytes, locked:    0 /   0

     iteration # 21     ecut=    60.00 Ry     beta= 0.70
     Davidson diagonalization with overlap

---- Real-time Memory Report at c_bands before calling an iterative solver
          1056 MiB given to the printing process from OS
           636 MiB allocation reported by mallinfo(arena+hblkhd)
       1887754 MiB available memory on the node where the printing process lives
     GPU memory used/free/total (MiB): 2285 / 180356 / 182642
------------------
     ethr =  1.52E-12,  avg # of iterations =  1.0

     total cpu time spent up to now is       17.2 secs

     total energy              =    -936.83750292 Ry
     estimated scf accuracy    <          3.9E-09 Ry
[tb_dev] Currently allocated     0.00E+00 Mbytes, locked:    0 /   0
[tb_pin] Currently allocated     0.00E+00 Mbytes, locked:    0 /   0

     iteration # 22     ecut=    60.00 Ry     beta= 0.70
     Davidson diagonalization with overlap

---- Real-time Memory Report at c_bands before calling an iterative solver
          1056 MiB given to the printing process from OS
           636 MiB allocation reported by mallinfo(arena+hblkhd)
       1887750 MiB available memory on the node where the printing process lives
     GPU memory used/free/total (MiB): 2285 / 180356 / 182642
------------------
     ethr =  1.52E-12,  avg # of iterations =  5.5

     total cpu time spent up to now is       17.9 secs

     total energy              =    -936.83750292 Ry
     estimated scf accuracy    <          2.1E-10 Ry
[tb_dev] Currently allocated     0.00E+00 Mbytes, locked:    0 /   0
[tb_pin] Currently allocated     0.00E+00 Mbytes, locked:    0 /   0

     iteration # 23     ecut=    60.00 Ry     beta= 0.70
     Davidson diagonalization with overlap

---- Real-time Memory Report at c_bands before calling an iterative solver
          1056 MiB given to the printing process from OS
           636 MiB allocation reported by mallinfo(arena+hblkhd)
       1887743 MiB available memory on the node where the printing process lives
     GPU memory used/free/total (MiB): 2285 / 180356 / 182642
------------------
     ethr =  3.08E-13,  avg # of iterations =  5.0

     total cpu time spent up to now is       18.6 secs

     total energy              =    -936.83750292 Ry
     estimated scf accuracy    <          1.6E-11 Ry
[tb_dev] Currently allocated     0.00E+00 Mbytes, locked:    0 /   0
[tb_pin] Currently allocated     0.00E+00 Mbytes, locked:    0 /   0

     iteration # 24     ecut=    60.00 Ry     beta= 0.70
     Davidson diagonalization with overlap

---- Real-time Memory Report at c_bands before calling an iterative solver
          1056 MiB given to the printing process from OS
           636 MiB allocation reported by mallinfo(arena+hblkhd)
       1887738 MiB available memory on the node where the printing process lives
     GPU memory used/free/total (MiB): 2285 / 180356 / 182642
------------------
     ethr =  1.00E-13,  avg # of iterations =  1.7

     total cpu time spent up to now is       19.0 secs

     total energy              =    -936.83750292 Ry
     estimated scf accuracy    <          1.9E-11 Ry
[tb_dev] Currently allocated     0.00E+00 Mbytes, locked:    0 /   0
[tb_pin] Currently allocated     0.00E+00 Mbytes, locked:    0 /   0

     iteration # 25     ecut=    60.00 Ry     beta= 0.70
     Davidson diagonalization with overlap

---- Real-time Memory Report at c_bands before calling an iterative solver
          1056 MiB given to the printing process from OS
           636 MiB allocation reported by mallinfo(arena+hblkhd)
       1887736 MiB available memory on the node where the printing process lives
     GPU memory used/free/total (MiB): 2285 / 180356 / 182642
------------------
     ethr =  1.00E-13,  avg # of iterations =  1.0

     total cpu time spent up to now is       19.4 secs

     total energy              =    -936.83750292 Ry
     estimated scf accuracy    <          7.9E-12 Ry
[tb_dev] Currently allocated     0.00E+00 Mbytes, locked:    0 /   0
[tb_pin] Currently allocated     0.00E+00 Mbytes, locked:    0 /   0

     iteration # 26     ecut=    60.00 Ry     beta= 0.70
     Davidson diagonalization with overlap

---- Real-time Memory Report at c_bands before calling an iterative solver
          1056 MiB given to the printing process from OS
           636 MiB allocation reported by mallinfo(arena+hblkhd)
       1887738 MiB available memory on the node where the printing process lives
     GPU memory used/free/total (MiB): 2285 / 180356 / 182642
------------------
     ethr =  1.00E-13,  avg # of iterations =  2.0

     total cpu time spent up to now is       19.9 secs

     total energy              =    -936.83750292 Ry
     estimated scf accuracy    <          1.5E-12 Ry
[tb_dev] Currently allocated     0.00E+00 Mbytes, locked:    0 /   0
[tb_pin] Currently allocated     0.00E+00 Mbytes, locked:    0 /   0

     iteration # 27     ecut=    60.00 Ry     beta= 0.70
     Davidson diagonalization with overlap

---- Real-time Memory Report at c_bands before calling an iterative solver
          1056 MiB given to the printing process from OS
           636 MiB allocation reported by mallinfo(arena+hblkhd)
       1887735 MiB available memory on the node where the printing process lives
     GPU memory used/free/total (MiB): 2285 / 180356 / 182642
------------------
     ethr =  1.00E-13,  avg # of iterations =  1.0

     total cpu time spent up to now is       20.3 secs

     total energy              =    -936.83750292 Ry
     estimated scf accuracy    <          3.1E-12 Ry
[tb_dev] Currently allocated     0.00E+00 Mbytes, locked:    0 /   0
[tb_pin] Currently allocated     0.00E+00 Mbytes, locked:    0 /   0

     iteration # 28     ecut=    60.00 Ry     beta= 0.70
     Davidson diagonalization with overlap

---- Real-time Memory Report at c_bands before calling an iterative solver
          1056 MiB given to the printing process from OS
           636 MiB allocation reported by mallinfo(arena+hblkhd)
       1887730 MiB available memory on the node where the printing process lives
     GPU memory used/free/total (MiB): 2285 / 180356 / 182642
------------------
     ethr =  1.00E-13,  avg # of iterations =  1.0

     total cpu time spent up to now is       20.7 secs

     End of self-consistent calculation

          k = 0.0000 0.0000 0.0000 (  5631 PWs)   bands (ev):

   -47.0328 -47.0181 -34.7882 -34.7854 -23.3688 -23.3688 -23.3004 -23.2170
   -23.2170 -23.1126  -9.7951  -9.1223  -9.1223  -8.2383  -8.0053  -8.0053
     2.5970   2.5970   2.7934   2.9196   2.9196   3.7495   4.9703   5.0147
     5.0147   5.8621   6.1964   6.1964   6.3408   6.4629   6.4629   6.5757
     7.0968   7.0968

     occupation numbers 
     1.0000   1.0000   1.0000   1.0000   1.0000   1.0000   1.0000   1.0000
     1.0000   1.0000   1.0000   1.0000   1.0000   1.0000   1.0000   1.0000
     1.0000   1.0000   1.0000   1.0000   1.0000   1.0000   1.0000   1.0000
     1.0000   1.0000   1.0000   1.0000   1.0000   1.0000   1.0000   1.0000
     1.0000   1.0000

          k = 0.0000-0.2083 0.0657 (  5655 PWs)   bands (ev):

   -47.0318 -47.0191 -34.7881 -34.7856 -23.3605 -23.3592 -23.2876 -23.2287
   -23.2278 -23.1251  -9.6865  -9.0626  -9.0603  -8.3131  -8.1118  -8.0939
     2.5539   2.6586   2.9754   3.1241   3.1652   3.8126   4.6579   4.7605
     4.8415   5.8233   5.9491   6.2254   6.2407   6.5474   6.6275   6.6692
     6.9482   7.0033

     occupation numbers 
     1.0000   1.0000   1.0000   1.0000   1.0000   1.0000   1.0000   1.0000
     1.0000   1.0000   1.0000   1.0000   1.0000   1.0000   1.0000   1.0000
     1.0000   1.0000   1.0000   1.0000   1.0000   1.0000   1.0000   1.0000
     1.0000   1.0000   1.0000   1.0000   1.0000   1.0000   1.0000   1.0000
     1.0000   1.0000

          k = 0.0000-0.4167 0.1314 (  5650 PWs)   bands (ev):

   -47.0291 -47.0217 -34.7876 -34.7862 -23.3362 -23.3326 -23.2598 -23.2569
   -23.2527 -23.1593  -9.3878  -8.9018  -8.8890  -8.5420  -8.3662  -8.3201
     2.7192   2.8904   3.2445   3.6121   3.6891   3.9498   3.9998   4.3471
     4.5763   5.2372   5.6191   5.9134   6.4979   6.5388   6.6178   6.7375
     6.8557   6.9942

     occupation numbers 
     1.0000   1.0000   1.0000   1.0000   1.0000   1.0000   1.0000   1.0000
     1.0000   1.0000   1.0000   1.0000   1.0000   1.0000   1.0000   1.0000
     1.0000   1.0000   1.0000   1.0000   1.0000   1.0000   1.0000   1.0000
     1.0000   1.0000   1.0000   1.0000   1.0000   1.0000   1.0000   1.0000
     1.0000   1.0000

          k =-0.0000 0.6250-0.1970 (  5656 PWs)   bands (ev):

   -47.0254 -47.0254 -34.7869 -34.7869 -23.2997 -23.2997 -23.2952 -23.2952
   -23.2060 -23.2060  -8.9874  -8.9874  -8.6603  -8.6603  -8.5753  -8.5753
     3.0953   3.0953   3.3726   3.3726   3.8143   3.8143   4.2952   4.2952
     4.8109   4.8109   5.2424   5.2424   6.6253   6.6253   6.7698   6.7698
     6.8660   6.8660

     occupation numbers 
     1.0000   1.0000   1.0000   1.0000   1.0000   1.0000   1.0000   1.0000
     1.0000   1.0000   1.0000   1.0000   1.0000   1.0000   1.0000   1.0000
     1.0000   1.0000   1.0000   1.0000   1.0000   1.0000   1.0000   1.0000
     1.0000   1.0000   1.0000   1.0000   1.0000   1.0000   1.0000   1.0000
     1.0000   1.0000

          k =-0.1804-0.1042 0.1314 (  5653 PWs)   bands (ev):

   -47.0315 -47.0193 -34.7880 -34.7857 -23.3715 -23.3509 -23.2770 -23.2508
   -23.2151 -23.1239  -9.6782  -9.1044  -8.9658  -8.4134  -8.1277  -8.0424
     2.5935   2.6701   2.8498   3.1970   3.2362   3.9717   4.2754   4.9270
     5.0049   5.8209   5.9017   6.1348   6.2426   6.4035   6.5422   6.6673
     6.9684   7.0225

     occupation numbers 
     1.0000   1.0000   1.0000   1.0000   1.0000   1.0000   1.0000   1.0000
     1.0000   1.0000   1.0000   1.0000   1.0000   1.0000   1.0000   1.0000
     1.0000   1.0000   1.0000   1.0000   1.0000   1.0000   1.0000   1.0000
     1.0000   1.0000   1.0000   1.0000   1.0000   1.0000   1.0000   1.0000
     1.0000   1.0000

          k =-0.1804-0.3125 0.1970 (  5680 PWs)   bands (ev):

   -47.0297 -47.0212 -34.7877 -34.7861 -23.3647 -23.3349 -23.2898 -23.2399
   -23.2250 -23.1405  -9.5015  -9.0292  -8.7782  -8.6543  -8.2410  -8.1688
     2.5476   2.8284   3.1899   3.3898   3.5520   3.7908   4.3065   4.5111
     4.9252   5.4541   5.8074   6.0976   6.1947   6.3689   6.4856   6.7009
     6.8344   7.0041

     occupation numbers 
     1.0000   1.0000   1.0000   1.0000   1.0000   1.0000   1.0000   1.0000
     1.0000   1.0000   1.0000   1.0000   1.0000   1.0000   1.0000   1.0000
     1.0000   1.0000   1.0000   1.0000   1.0000   1.0000   1.0000   1.0000
     1.0000   1.0000   1.0000   1.0000   1.0000   1.0000   1.0000   1.0000
     1.0000   1.0000

          k =-0.1804 0.7291-0.1314 (  5678 PWs)   bands (ev):

   -47.0266 -47.0242 -34.7872 -34.7867 -23.3401 -23.3291 -23.3043 -23.2550
   -23.1966 -23.1750  -9.1906  -9.0000  -8.8512  -8.4907  -8.4714  -8.4065
     2.7335   2.9557   3.1891   3.6213   3.8261   3.9380   4.1365   4.4145
     4.6651   5.0769   5.5192   5.8530   6.2912   6.4822   6.5423   6.6695
     6.8489   6.9388

     occupation numbers 
     1.0000   1.0000   1.0000   1.0000   1.0000   1.0000   1.0000   1.0000
     1.0000   1.0000   1.0000   1.0000   1.0000   1.0000   1.0000   1.0000
     1.0000   1.0000   1.0000   1.0000   1.0000   1.0000   1.0000   1.0000
     1.0000   1.0000   1.0000   1.0000   1.0000   1.0000   1.0000   1.0000
     1.0000   1.0000

          k =-0.1804 0.5208-0.0657 (  5666 PWs)   bands (ev):

   -47.0275 -47.0233 -34.7874 -34.7865 -23.3563 -23.3023 -23.2947 -23.2658
   -23.2199 -23.1607  -9.2950  -8.8555  -8.7655  -8.6645  -8.5828  -8.2427
     2.6643   3.0948   3.2464   3.3847   3.5896   3.9960   4.2440   4.4424
     4.7724   5.1505   5.4264   6.0566   6.1782   6.4157   6.5761   6.7687
     6.8312   6.9739

     occupation numbers 
     1.0000   1.0000   1.0000   1.0000   1.0000   1.0000   1.0000   1.0000
     1.0000   1.0000   1.0000   1.0000   1.0000   1.0000   1.0000   1.0000
     1.0000   1.0000   1.0000   1.0000   1.0000   1.0000   1.0000   1.0000
     1.0000   1.0000   1.0000   1.0000   1.0000   1.0000   1.0000   1.0000
     1.0000   1.0000

          k =-0.1804 0.3125 0.0000 (  5652 PWs)   bands (ev):

   -47.0303 -47.0205 -34.7878 -34.7859 -23.3652 -23.3329 -23.2633 -23.2607
   -23.2344 -23.1377  -9.5410  -9.0090  -8.9092  -8.4679  -8.3282  -8.1095
     2.5778   2.7750   3.1112   3.2015   3.6279   3.9885   4.1275   4.3396
     5.0393   5.6721   5.8632   6.0065   6.3404   6.4721   6.5485   6.7246
     6.7938   7.0330

     occupation numbers 
     1.0000   1.0000   1.0000   1.0000   1.0000   1.0000   1.0000   1.0000
     1.0000   1.0000   1.0000   1.0000   1.0000   1.0000   1.0000   1.0000
     1.0000   1.0000   1.0000   1.0000   1.0000   1.0000   1.0000   1.0000
     1.0000   1.0000   1.0000   1.0000   1.0000   1.0000   1.0000   1.0000
     1.0000   1.0000

          k =-0.3608-0.2083 0.2627 (  5671 PWs)   bands (ev):

   -47.0291 -47.0218 -34.7877 -34.7862 -23.3769 -23.3427 -23.3312 -23.2115
   -23.2005 -23.1316  -9.5106  -9.0691  -8.8973  -8.5472  -8.1939  -8.1202
     2.5547   2.7244   2.9082   3.0699   3.6476   3.9954   4.6197   4.8170
     5.2641   5.5472   5.7735   5.9869   5.9987   6.2280   6.3183   6.6515
     6.6761   6.9393

     occupation numbers 
     1.0000   1.0000   1.0000   1.0000   1.0000   1.0000   1.0000   1.0000
     1.0000   1.0000   1.0000   1.0000   1.0000   1.0000   1.0000   1.0000
     1.0000   1.0000   1.0000   1.0000   1.0000   1.0000   1.0000   1.0000
     1.0000   1.0000   1.0000   1.0000   1.0000   1.0000   1.0000   1.0000
     1.0000   1.0000

          k =-0.3608 0.8333-0.0657 (  5686 PWs)   bands (ev):

   -47.0275 -47.0233 -34.7874 -34.7865 -23.3694 -23.3610 -23.3313 -23.2218
   -23.1689 -23.1443  -9.3767  -9.1017  -8.9914  -8.3493  -8.2863  -8.2326
     2.5084   2.6536   2.8844   3.1993   3.8860   4.2273   4.4308   4.8702
     5.1045   5.4777   5.7258   5.8816   5.9974   6.2167   6.3405   6.4754
     6.7066   6.9560

     occupation numbers 
     1.0000   1.0000   1.0000   1.0000   1.0000   1.0000   1.0000   1.0000
     1.0000   1.0000   1.0000   1.0000   1.0000   1.0000   1.0000   1.0000
     1.0000   1.0000   1.0000   1.0000   1.0000   1.0000   1.0000   1.0000
     1.0000   1.0000   1.0000   1.0000   1.0000   1.0000   1.0000   1.0000
     1.0000   1.0000

          k =-0.3608 0.6250 0.0000 (  5690 PWs)   bands (ev):

   -47.0254 -47.0254 -34.7869 -34.7869 -23.3698 -23.3424 -23.3012 -23.2529
   -23.1769 -23.1561  -9.2286  -9.1229  -8.8308  -8.5241  -8.4352  -8.2301
     2.5287   2.7341   3.1726   3.5070   3.8262   3.9075   4.3825   4.6920
     4.9225   5.2672   5.5948   5.8503   6.2048   6.2767   6.3708   6.6512
     6.7315   6.9595

     occupation numbers 
     1.0000   1.0000   1.0000   1.0000   1.0000   1.0000   1.0000   1.0000
     1.0000   1.0000   1.0000   1.0000   1.0000   1.0000   1.0000   1.0000
     1.0000   1.0000   1.0000   1.0000   1.0000   1.0000   1.0000   1.0000
     1.0000   1.0000   1.0000   1.0000   1.0000   1.0000   1.0000   1.0000
     1.0000   1.0000

          k = 0.5413 0.3125-0.3941 (  5688 PWs)   bands (ev):

   -47.0279 -47.0230 -34.7875 -34.7864 -23.3799 -23.3731 -23.3428 -23.2094
   -23.1574 -23.1325  -9.4463  -9.1463  -9.0383  -8.2971  -8.2155  -8.1577
     2.5196   2.5430   2.7238   2.8313   4.1872   4.4172   4.7233   5.0985
     5.1683   5.2724   5.7375   5.7722   6.0495   6.1153   6.3656   6.4006
     6.6298   6.9017

     occupation numbers 
     1.0000   1.0000   1.0000   1.0000   1.0000   1.0000   1.0000   1.0000
     1.0000   1.0000   1.0000   1.0000   1.0000   1.0000   1.0000   1.0000
     1.0000   1.0000   1.0000   1.0000   1.0000   1.0000   1.0000   1.0000
     1.0000   1.0000   1.0000   1.0000   1.0000   1.0000   1.0000   1.0000
     1.0000   1.0000

          k = 0.0000 0.0000 0.1970 (  5647 PWs)   bands (ev):

   -47.0318 -47.0191 -34.7881 -34.7856 -23.3590 -23.3590 -23.2886 -23.2275
   -23.2275 -23.1259  -9.7005  -9.0544  -9.0544  -8.3548  -8.0886  -8.0886
     2.6977   2.6977   2.9330   3.1206   3.1206   3.8569   4.7521   4.7882
     4.7882   5.8816   5.8816   5.9559   6.1137   6.4933   6.4933   6.6026
     7.1025   7.1025

     occupation numbers 
     1.0000   1.0000   1.0000   1.0000   1.0000   1.0000   1.0000   1.0000
     1.0000   1.0000   1.0000   1.0000   1.0000   1.0000   1.0000   1.0000
     1.0000   1.0000   1.0000   1.0000   1.0000   1.0000   1.0000   1.0000
     1.0000   1.0000   1.0000   1.0000   1.0000   1.0000   1.0000   1.0000
     1.0000   1.0000

          k = 0.0000-0.2083 0.2627 (  5657 PWs)   bands (ev):

   -47.0303 -47.0206 -34.7878 -34.7859 -23.3654 -23.3297 -23.2648 -23.2584
   -23.2352 -23.1386  -9.5621  -8.9972  -8.9001  -8.5306  -8.2839  -8.1105
     2.6048   2.8546   3.1449   3.3939   3.5311   4.0109   4.2679   4.4000
     4.8126   5.3348   5.7800   6.0269   6.1113   6.4554   6.6113   6.6704
     6.9628   7.0040

     occupation numbers 
     1.0000   1.0000   1.0000   1.0000   1.0000   1.0000   1.0000   1.0000
     1.0000   1.0000   1.0000   1.0000   1.0000   1.0000   1.0000   1.0000
     1.0000   1.0000   1.0000   1.0000   1.0000   1.0000   1.0000   1.0000
     1.0000   1.0000   1.0000   1.0000   1.0000   1.0000   1.0000   1.0000
     1.0000   1.0000

          k = 0.0000 0.8333-0.0657 (  5676 PWs)   bands (ev):

   -47.0275 -47.0233 -34.7873 -34.7865 -23.3573 -23.2990 -23.2910 -23.2683
   -23.2217 -23.1609  -9.3053  -8.8593  -8.8126  -8.6436  -8.5427  -8.2554
     2.6226   3.0574   3.4615   3.6230   3.7246   4.0075   4.0213   4.4898
     4.6404   4.7676   5.5233   5.9791   6.2843   6.3444   6.6202   6.7276
     6.8499   6.8838

     occupation numbers 
     1.0000   1.0000   1.0000   1.0000   1.0000   1.0000   1.0000   1.0000
     1.0000   1.0000   1.0000   1.0000   1.0000   1.0000   1.0000   1.0000
     1.0000   1.0000   1.0000   1.0000   1.0000   1.0000   1.0000   1.0000
     1.0000   1.0000   1.0000   1.0000   1.0000   1.0000   1.0000   1.0000
     1.0000   1.0000

          k = 0.0000 0.6250 0.0000 (  5664 PWs)   bands (ev):

   -47.0266 -47.0242 -34.7872 -34.7867 -23.3377 -23.3304 -23.3074 -23.2525
   -23.1962 -23.1759  -9.1950  -8.9995  -8.8389  -8.4997  -8.4912  -8.3860
     2.8791   2.9991   3.0859   3.3113   3.7379   3.9810   4.2917   4.5554
     4.8733   5.0668   5.4619   5.6835   6.2707   6.4839   6.5585   6.6903
     6.7507   6.9820

     occupation numbers 
     1.0000   1.0000   1.0000   1.0000   1.0000   1.0000   1.0000   1.0000
     1.0000   1.0000   1.0000   1.0000   1.0000   1.0000   1.0000   1.0000
     1.0000   1.0000   1.0000   1.0000   1.0000   1.0000   1.0000   1.0000
     1.0000   1.0000   1.0000   1.0000   1.0000   1.0000   1.0000   1.0000
     1.0000   1.0000

          k = 0.0000 0.4167 0.0657 (  5657 PWs)   bands (ev):

   -47.0296 -47.0212 -34.7877 -34.7861 -23.3639 -23.3366 -23.2907 -23.2394
   -23.2244 -23.1405  -9.4950  -9.0362  -8.7609  -8.6606  -8.2542  -8.1594
     2.6702   2.7962   2.9090   3.4664   3.5129   3.7465   4.3199   4.6540
     4.9276   5.6485   5.8736   6.0312   6.1765   6.2614   6.5165   6.7250
     6.8142   7.0052

     occupation numbers 
     1.0000   1.0000   1.0000   1.0000   1.0000   1.0000   1.0000   1.0000
     1.0000   1.0000   1.0000   1.0000   1.0000   1.0000   1.0000   1.0000
     1.0000   1.0000   1.0000   1.0000   1.0000   1.0000   1.0000   1.0000
     1.0000   1.0000   1.0000   1.0000   1.0000   1.0000   1.0000   1.0000
     1.0000   1.0000

          k =-0.1804-0.1042 0.3284 (  5669 PWs)   bands (ev):

   -47.0297 -47.0212 -34.7877 -34.7861 -23.3634 -23.3342 -23.2889 -23.2407
   -23.2239 -23.1415  -9.5232  -9.0170  -8.7505  -8.7028  -8.2509  -8.1481
     2.7244   2.8299   3.1828   3.4581   3.5298   3.7948   4.3346   4.6755
     4.7843   5.3632   5.5942   5.9914   6.1183   6.2995   6.4039   6.6906
     6.8897   7.0278

     occupation numbers 
     1.0000   1.0000   1.0000   1.0000   1.0000   1.0000   1.0000   1.0000
     1.0000   1.0000   1.0000   1.0000   1.0000   1.0000   1.0000   1.0000
     1.0000   1.0000   1.0000   1.0000   1.0000   1.0000   1.0000   1.0000
     1.0000   1.0000   1.0000   1.0000   1.0000   1.0000   1.0000   1.0000
     1.0000   1.0000

          k =-0.1804 0.9375 0.0000 (  5677 PWs)   bands (ev):

   -47.0279 -47.0230 -34.7874 -34.7864 -23.3686 -23.3296 -23.3120 -23.2388
   -23.1993 -23.1476  -9.3907  -8.9655  -8.9196  -8.5162  -8.4192  -8.1780
     2.5887   2.9052   3.1480   3.5778   3.6287   4.0002   4.2119   4.6694
     4.9220   5.2287   5.6859   5.8397   6.0376   6.2507   6.4222   6.6383
     6.7687   6.9157

     occupation numbers 
     1.0000   1.0000   1.0000   1.0000   1.0000   1.0000   1.0000   1.0000
     1.0000   1.0000   1.0000   1.0000   1.0000   1.0000   1.0000   1.0000
     1.0000   1.0000   1.0000   1.0000   1.0000   1.0000   1.0000   1.0000
     1.0000   1.0000   1.0000   1.0000   1.0000   1.0000   1.0000   1.0000
     1.0000   1.0000

          k =-0.1804 0.7291 0.0657 (  5678 PWs)   bands (ev):

   -47.0254 -47.0254 -34.7870 -34.7869 -23.3599 -23.3587 -23.2756 -23.2738
   -23.1656 -23.1650  -9.1986  -9.1839  -8.7453  -8.6524  -8.3090  -8.2889
     2.6093   2.7153   3.1577   3.4062   3.8593   4.2358   4.2625   4.5632
     4.8787   5.2823   5.7462   5.8417   5.9733   6.2285   6.4222   6.6005
     6.7763   6.8947

     occupation numbers 
     1.0000   1.0000   1.0000   1.0000   1.0000   1.0000   1.0000   1.0000
     1.0000   1.0000   1.0000   1.0000   1.0000   1.0000   1.0000   1.0000
     1.0000   1.0000   1.0000   1.0000   1.0000   1.0000   1.0000   1.0000
     1.0000   1.0000   1.0000   1.0000   1.0000   1.0000   1.0000   1.0000
     1.0000   1.0000

          k =-0.1804 0.5208 0.1314 (  5682 PWs)   bands (ev):

   -47.0279 -47.0230 -34.7874 -34.7864 -23.3686 -23.3311 -23.3141 -23.2388
   -23.1984 -23.1471  -9.3725  -8.9595  -8.9134  -8.5186  -8.4314  -8.1745
     2.5506   2.9077   3.0103   3.3199   3.6621   4.0545   4.2238   4.7852
     4.9618   5.4648   5.6101   5.9182   6.1642   6.3522   6.4390   6.5454
     6.7684   6.9831

     occupation numbers 
     1.0000   1.0000   1.0000   1.0000   1.0000   1.0000   1.0000   1.0000
     1.0000   1.0000   1.0000   1.0000   1.0000   1.0000   1.0000   1.0000
     1.0000   1.0000   1.0000   1.0000   1.0000   1.0000   1.0000   1.0000
     1.0000   1.0000   1.0000   1.0000   1.0000   1.0000   1.0000   1.0000
     1.0000   1.0000

          k = 0.7217 0.4167-0.3284 (  5682 PWs)   bands (ev):

   -47.0275 -47.0233 -34.7874 -34.7865 -23.3683 -23.3606 -23.3315 -23.2207
   -23.1691 -23.1450  -9.3914  -9.1109  -8.9797  -8.3502  -8.3035  -8.2152
     2.6754   2.7266   2.7866   3.1338   3.9762   4.1430   4.5295   4.8035
     5.2743   5.3779   5.7174   5.7202   6.0470   6.0921   6.3206   6.4412
     6.5937   6.9505

     occupation numbers 
     1.0000   1.0000   1.0000   1.0000   1.0000   1.0000   1.0000   1.0000
     1.0000   1.0000   1.0000   1.0000   1.0000   1.0000   1.0000   1.0000
     1.0000   1.0000   1.0000   1.0000   1.0000   1.0000   1.0000   1.0000
     1.0000   1.0000   1.0000   1.0000   1.0000   1.0000   1.0000   1.0000
     1.0000   1.0000

          k = 0.7217 0.2083-0.2627 (  5681 PWs)   bands (ev):

   -47.0266 -47.0242 -34.7872 -34.7867 -23.3722 -23.3704 -23.3119 -23.2373
   -23.1569 -23.1484  -9.3200  -9.1858  -8.9017  -8.4632  -8.2638  -8.2072
     2.5279   2.5547   2.9287   3.4163   3.6905   4.4087   4.5858   4.7490
     5.2310   5.3609   5.5930   5.7290   5.9796   6.1342   6.4258   6.4981
     6.6356   6.9322

     occupation numbers 
     1.0000   1.0000   1.0000   1.0000   1.0000   1.0000   1.0000   1.0000
     1.0000   1.0000   1.0000   1.0000   1.0000   1.0000   1.0000   1.0000
     1.0000   1.0000   1.0000   1.0000   1.0000   1.0000   1.0000   1.0000
     1.0000   1.0000   1.0000   1.0000   1.0000   1.0000   1.0000   1.0000
     1.0000   1.0000

          k = 0.7217-0.0000-0.1970 (  5686 PWs)   bands (ev):

   -47.0254 -47.0254 -34.7869 -34.7869 -23.3594 -23.3594 -23.2753 -23.2753
   -23.1650 -23.1650  -9.1857  -9.1857  -8.7035  -8.7035  -8.2967  -8.2967
     2.6196   2.6196   3.2963   3.2963   3.9958   3.9958   4.4183   4.4183
     5.0732   5.0732   5.8494   5.8494   6.1535   6.1535   6.5155   6.5155
     6.8667   6.8667

     occupation numbers 
     1.0000   1.0000   1.0000   1.0000   1.0000   1.0000   1.0000   1.0000
     1.0000   1.0000   1.0000   1.0000   1.0000   1.0000   1.0000   1.0000
     1.0000   1.0000   1.0000   1.0000   1.0000   1.0000   1.0000   1.0000
     1.0000   1.0000   1.0000   1.0000   1.0000   1.0000   1.0000   1.0000
     1.0000   1.0000

          k = 0.5413 0.3125-0.1970 (  5688 PWs)   bands (ev):

   -47.0275 -47.0233 -34.7874 -34.7865 -23.3686 -23.3613 -23.3323 -23.2209
   -23.1689 -23.1447  -9.3783  -9.1039  -8.9850  -8.3542  -8.2958  -8.2205
     2.6072   2.7202   2.7903   2.9975   3.9557   4.2477   4.5604   4.8248
     5.1995   5.3353   5.7861   5.9312   6.1006   6.1059   6.3665   6.3997
     6.6011   6.9692

     occupation numbers 
     1.0000   1.0000   1.0000   1.0000   1.0000   1.0000   1.0000   1.0000
     1.0000   1.0000   1.0000   1.0000   1.0000   1.0000   1.0000   1.0000
     1.0000   1.0000   1.0000   1.0000   1.0000   1.0000   1.0000   1.0000
     1.0000   1.0000   1.0000   1.0000   1.0000   1.0000   1.0000   1.0000
     1.0000   1.0000

          k = 0.0000 0.0000 0.3941 (  5662 PWs)   bands (ev):

   -47.0291 -47.0218 -34.7876 -34.7862 -23.3318 -23.3318 -23.2560 -23.2560
   -23.2557 -23.1618  -9.4363  -8.8645  -8.8645  -8.6622  -8.3088  -8.3088
     3.0245   3.0245   3.2932   3.6467   3.6467   4.2044   4.2222   4.2222
     4.2775   5.2042   5.2042   5.5158   6.1873   6.5903   6.6008   6.6008
     7.0101   7.0101

     occupation numbers 
     1.0000   1.0000   1.0000   1.0000   1.0000   1.0000   1.0000   1.0000
     1.0000   1.0000   1.0000   1.0000   1.0000   1.0000   1.0000   1.0000
     1.0000   1.0000   1.0000   1.0000   1.0000   1.0000   1.0000   1.0000
     1.0000   1.0000   1.0000   1.0000   1.0000   1.0000   1.0000   1.0000
     1.0000   1.0000

          k = 0.0000 1.0416 0.0657 (  5652 PWs)   bands (ev):

   -47.0275 -47.0233 -34.7873 -34.7865 -23.3553 -23.2985 -23.2905 -23.2661
   -23.2228 -23.1621  -9.3347  -8.8822  -8.7888  -8.6492  -8.5488  -8.2405
     2.8141   3.2047   3.4233   3.6784   3.6953   3.9789   4.1787   4.4881
     4.6269   4.6299   5.2707   5.7531   6.1745   6.2304   6.6219   6.7779
     6.8277   6.8797

     occupation numbers 
     1.0000   1.0000   1.0000   1.0000   1.0000   1.0000   1.0000   1.0000
     1.0000   1.0000   1.0000   1.0000   1.0000   1.0000   1.0000   1.0000
     1.0000   1.0000   1.0000   1.0000   1.0000   1.0000   1.0000   1.0000
     1.0000   1.0000   1.0000   1.0000   1.0000   1.0000   1.0000   1.0000
     1.0000   1.0000

          k = 0.0000 0.8333 0.1314 (  5679 PWs)   bands (ev):

   -47.0254 -47.0254 -34.7870 -34.7869 -23.3698 -23.3397 -23.3026 -23.2499
   -23.1787 -23.1564  -9.2409  -9.1522  -8.8123  -8.5301  -8.4209  -8.2346
     2.5718   2.9966   3.0636   3.5265   3.8243   3.8416   4.5435   4.6491
     5.0304   5.1448   5.6411   5.6435   5.9320   6.2421   6.4538   6.5147
     6.6702   6.9541

     occupation numbers 
     1.0000   1.0000   1.0000   1.0000   1.0000   1.0000   1.0000   1.0000
     1.0000   1.0000   1.0000   1.0000   1.0000   1.0000   1.0000   1.0000
     1.0000   1.0000   1.0000   1.0000   1.0000   1.0000   1.0000   1.0000
     1.0000   1.0000   1.0000   1.0000   1.0000   1.0000   1.0000   1.0000
     1.0000   1.0000

          k = 0.9021 0.5208-0.2627 (  5675 PWs)   bands (ev):

   -47.0267 -47.0242 -34.7871 -34.7867 -23.3369 -23.3277 -23.3040 -23.2517
   -23.1979 -23.1774  -9.2399  -9.0350  -8.8172  -8.5013  -8.4814  -8.3737
     3.0870   3.1313   3.1968   3.7105   3.7969   3.9232   4.0922   4.3950
     4.7547   4.9267   5.2546   5.4084   6.2425   6.3273   6.5222   6.6810
     6.7234   6.9458

     occupation numbers 
     1.0000   1.0000   1.0000   1.0000   1.0000   1.0000   1.0000   1.0000
     1.0000   1.0000   1.0000   1.0000   1.0000   1.0000   1.0000   1.0000
     1.0000   1.0000   1.0000   1.0000   1.0000   1.0000   1.0000   1.0000
     1.0000   1.0000   1.0000   1.0000   1.0000   1.0000   1.0000   1.0000
     1.0000   1.0000

          k = 0.9021 0.3125-0.1970 (  5678 PWs)   bands (ev):

   -47.0254 -47.0254 -34.7869 -34.7869 -23.3584 -23.3584 -23.2739 -23.2739
   -23.1659 -23.1659  -9.2092  -9.2092  -8.6935  -8.6935  -8.2960  -8.2960
     2.7554   2.7554   3.2817   3.2817   4.0984   4.0984   4.3453   4.3453
     5.0991   5.0991   5.6429   5.6429   6.0659   6.0659   6.4605   6.4605
     6.8274   6.8274

     occupation numbers 
     1.0000   1.0000   1.0000   1.0000   1.0000   1.0000   1.0000   1.0000
     1.0000   1.0000   1.0000   1.0000   1.0000   1.0000   1.0000   1.0000
     1.0000   1.0000   1.0000   1.0000   1.0000   1.0000   1.0000   1.0000
     1.0000   1.0000   1.0000   1.0000   1.0000   1.0000   1.0000   1.0000
     1.0000   1.0000

          k =-0.0000 0.0000-0.5911 (  5668 PWs)   bands (ev):

   -47.0255 -47.0255 -34.7869 -34.7869 -23.2942 -23.2942 -23.2942 -23.2942
   -23.2094 -23.2094  -9.0599  -9.0599  -8.5941  -8.5941  -8.5941  -8.5941
     3.5569   3.5569   3.5569   3.5569   3.7627   3.7627   4.4022   4.4022
     4.4022   4.4022   4.7996   4.7996   6.4379   6.4379   6.8083   6.8083
     6.8083   6.8083

     occupation numbers 
     1.0000   1.0000   1.0000   1.0000   1.0000   1.0000   1.0000   1.0000
     1.0000   1.0000   1.0000   1.0000   1.0000   1.0000   1.0000   1.0000
     1.0000   1.0000   1.0000   1.0000   1.0000   1.0000   1.0000   1.0000
     1.0000   1.0000   1.0000   1.0000   1.0000   1.0000   1.0000   1.0000
     1.0000   1.0000

     highest occupied level (ev):     7.1025

!    total energy              =    -936.83750292 Ry
     estimated scf accuracy    <          6.2E-13 Ry

     The total energy is the sum of the following terms:
     one-electron contribution =    -142.13728213 Ry
     hartree contribution      =     105.36294516 Ry
     xc contribution           =    -108.19375981 Ry
     ewald contribution        =    -328.41464955 Ry
     one-center paw contrib.   =    -463.45475659 Ry
      -> PAW hartree energy AE =     293.13291341 Ry
      -> PAW hartree energy PS =    -291.61496954 Ry
      -> PAW xc energy AE      =    -560.63982683 Ry
      -> PAW xc energy PS      =      95.66712637 Ry
      -> total E_H with PAW    =     106.88088902 Ry
      -> total E_XC with PAW   =    -573.16646026 Ry

     convergence has been achieved in  28 iterations

     Forces acting on atoms (cartesian axes, Ry/au):

     atom    1 type  1   force =    -0.00000000   -0.00000000    0.00129119
     atom    2 type  1   force =    -0.00000000   -0.00000000    0.00129119
     atom    3 type  2   force =     0.00594233    0.00036458   -0.00281751
     atom    4 type  2   force =    -0.00328690    0.00496392   -0.00281751
     atom    5 type  2   force =    -0.00265543   -0.00532850   -0.00281751
     atom    6 type  2   force =     0.00328690    0.00496392   -0.00281751
     atom    7 type  2   force =    -0.00594233    0.00036458   -0.00281751
     atom    8 type  2   force =     0.00265543   -0.00532850   -0.00281751
     atom    9 type  3   force =    -0.00000000    0.00000000    0.00716135
     atom   10 type  3   force =     0.00000000    0.00000000    0.00716135
     The non-local contrib.  to forces
     atom    1 type  1   force =     0.00000000   -0.00000000    0.01448071
     atom    2 type  1   force =     0.00000000    0.00000000    0.01448071
     atom    3 type  2   force =     0.33229330   -0.16463838   -0.05084920
     atom    4 type  2   force =    -0.02356563    0.37009363   -0.05084920
     atom    5 type  2   force =    -0.30872767   -0.20545525   -0.05084920
     atom    6 type  2   force =     0.02356563    0.37009363   -0.05084920
     atom    7 type  2   force =    -0.33229330   -0.16463838   -0.05084920
     atom    8 type  2   force =     0.30872767   -0.20545525   -0.05084920
     atom    9 type  3   force =    -0.00000000   -0.00000000   -0.01024521
     atom   10 type  3   force =    -0.00000000    0.00000000   -0.01024521
     The ionic contribution  to forces
     atom    1 type  1   force =     0.00000000   -0.00000000   -1.00350283
     atom    2 type  1   force =    -0.00000000    0.00000000   -1.00350283
     atom    3 type  2   force =    -3.67714009    2.63710301    0.44288344
     atom    4 type  2   force =    -0.44522815   -4.50304824    0.44288344
     atom    5 type  2   force =     4.12236824    1.86594523    0.44288344
     atom    6 type  2   force =     0.44522815   -4.50304824    0.44288344
     atom    7 type  2   force =     3.67714009    2.63710301    0.44288344
     atom    8 type  2   force =    -4.12236824    1.86594523    0.44288344
     atom    9 type  3   force =     0.00000000   -0.00000000   -0.32514748
     atom   10 type  3   force =     0.00000000    0.00000000   -0.32514748
     The local contribution  to forces
     atom    1 type  1   force =    -0.00000000   -0.00000000    0.99031334
     atom    2 type  1   force =     0.00000000    0.00000000    0.99031334
     atom    3 type  2   force =     3.35218329   -2.47351108   -0.39478395
     atom    4 type  2   force =     0.46603178    4.13983143   -0.39478395
     atom    5 type  2   force =    -3.81821507   -1.66632035   -0.39478395
     atom    6 type  2   force =    -0.46603179    4.13983142   -0.39478395
     atom    7 type  2   force =    -3.35218329   -2.47351108   -0.39478395
     atom    8 type  2   force =     3.81821507   -1.66632035   -0.39478395
     atom    9 type  3   force =    -0.00000000    0.00000000    0.34820420
     atom   10 type  3   force =    -0.00000000    0.00000000    0.34820420
     The core correction contribution to forces
     atom    1 type  1   force =     0.00000000    0.00000000    0.00000000
     atom    2 type  1   force =     0.00000000    0.00000000    0.00000000
     atom    3 type  2   force =    -0.00139449    0.00141116   -0.00006776
     atom    4 type  2   force =    -0.00052485   -0.00191324   -0.00006776
     atom    5 type  2   force =     0.00191934    0.00050208   -0.00006776
     atom    6 type  2   force =     0.00052485   -0.00191324   -0.00006776
     atom    7 type  2   force =     0.00139449    0.00141116   -0.00006776
     atom    8 type  2   force =    -0.00191934    0.00050208   -0.00006776
     atom    9 type  3   force =    -0.00000000    0.00000000   -0.00565017
     atom   10 type  3   force =    -0.00000000   -0.00000000   -0.00565017
     The Hubbard contrib.    to forces
     atom    1 type  1   force =     0.00000000    0.00000000    0.00000000
     atom    2 type  1   force =     0.00000000    0.00000000    0.00000000
     atom    3 type  2   force =     0.00000000    0.00000000    0.00000000
     atom    4 type  2   force =     0.00000000    0.00000000    0.00000000
     atom    5 type  2   force =     0.00000000    0.00000000    0.00000000
     atom    6 type  2   force =     0.00000000    0.00000000    0.00000000
     atom    7 type  2   force =     0.00000000    0.00000000    0.00000000
     atom    8 type  2   force =     0.00000000    0.00000000    0.00000000
     atom    9 type  3   force =     0.00000000    0.00000000    0.00000000
     atom   10 type  3   force =     0.00000000    0.00000000    0.00000000
     The SCF correction term to forces
     atom    1 type  1   force =     0.00000000    0.00000000    0.00000001
     atom    2 type  1   force =    -0.00000000    0.00000000    0.00000001
     atom    3 type  2   force =     0.00000032   -0.00000013    0.00000000
     atom    4 type  2   force =    -0.00000005    0.00000034    0.00000000
     atom    5 type  2   force =    -0.00000027   -0.00000022    0.00000000
     atom    6 type  2   force =     0.00000005    0.00000034    0.00000000
     atom    7 type  2   force =    -0.00000032   -0.00000013    0.00000000
     atom    8 type  2   force =     0.00000027   -0.00000022    0.00000000
     atom    9 type  3   force =    -0.00000000    0.00000000    0.00000005
     atom   10 type  3   force =    -0.00000000   -0.00000000    0.00000005

     Total force =     0.019136     Total SCF correction =     0.000001


     Computing stress (Cartesian axis) and pressure

          total   stress  (Ry/bohr**3)                   (kbar)     P=      -33.05
  -0.00015523   0.00000000  -0.00000000          -22.84        0.00       -0.00
   0.00000000  -0.00015523  -0.00000000            0.00      -22.84       -0.00
  -0.00000000  -0.00000000  -0.00036352           -0.00       -0.00      -53.47

     kinetic stress (kbar)  26220.08      0.00      0.00
                                0.00  26220.08      0.00
                               -0.00      0.00  26148.54

     local   stress (kbar) -12714.97     -0.00     -0.00
                               -0.00 -12714.97     -0.00
                               -0.00     -0.00 -11412.61

     nonloc. stress (kbar)   6838.47     -0.00      0.00
                                0.00   6838.47      0.00
                               -0.00      0.00   6875.25

     hartree stress (kbar)   7238.99      0.00     -0.00
                                0.00   7238.99     -0.00
                               -0.00     -0.00   6968.64

     exc-cor stress (kbar)   1065.25      0.00     -0.00
                                0.00   1065.25      0.00
                               -0.00      0.00   1062.75

     corecor stress (kbar)  -6729.34     -0.00      0.00
                               -0.00  -6729.34     -0.00
                                0.00     -0.00  -6729.89

     ewald   stress (kbar) -21941.32      0.00     -0.00
                                0.00 -21941.32      0.00
                               -0.00      0.00 -22966.16

     hubbard stress (kbar)      0.00      0.00      0.00
                                0.00      0.00      0.00
                                0.00      0.00      0.00

     DFT-D   stress (kbar)      0.00      0.00      0.00
                                0.00      0.00      0.00
                                0.00      0.00      0.00

     XDM     stress (kbar)      0.00      0.00      0.00
                                0.00      0.00      0.00
                                0.00      0.00      0.00

     dft-nl  stress (kbar)      0.00      0.00      0.00
                                0.00      0.00      0.00
                                0.00      0.00      0.00

     TS-vdW  stress (kbar)      0.00      0.00      0.00
                                0.00      0.00      0.00
                                0.00      0.00      0.00

     MDB     stress (kbar)      0.00      0.00      0.00
                                0.00      0.00      0.00
                                0.00      0.00      0.00

     3D-RISM stress (kbar)      0.00      0.00      0.00
                                0.00      0.00      0.00
                                0.00      0.00      0.00

     Message from routine punch:
     Nothing written, as per user request (disk_io='none')
 
     init_run     :      0.56s CPU      0.79s WALL (       1 calls)
     electrons    :     19.08s CPU     19.56s WALL (       1 calls)
     forces       :      0.08s CPU      0.08s WALL (       1 calls)
     stress       :      0.17s CPU      0.17s WALL (       1 calls)

     Called by init_run:
     wfcinit      :      0.17s CPU      0.29s WALL (       1 calls)
     wfcinit:atom :      0.02s CPU      0.03s WALL (      32 calls)
     wfcinit:wfcr :      0.12s CPU      0.21s WALL (      32 calls)
     potinit      :      0.09s CPU      0.11s WALL (       1 calls)
     hinit0       :      0.22s CPU      0.25s WALL (       1 calls)

     Called by electrons:
     c_bands      :     14.34s CPU     14.65s WALL (      28 calls)
     sum_band     :      1.96s CPU      1.99s WALL (      28 calls)
     v_of_rho     :      0.11s CPU      0.16s WALL (      29 calls)
     v_h          :      0.04s CPU      0.07s WALL (      29 calls)
     v_xc         :      0.07s CPU      0.09s WALL (      31 calls)
     newd         :      0.27s CPU      0.30s WALL (      29 calls)
     PAW_pot      :      2.17s CPU      2.24s WALL (      29 calls)
     mix_rho      :      0.19s CPU      0.20s WALL (      28 calls)

     Called by c_bands:
     init_us_2    :      0.62s CPU      0.63s WALL (    1888 calls)
     cegterg      :     13.02s CPU     13.29s WALL (     896 calls)

     Called by sum_band:
     sum_band:wei :      0.00s CPU      0.00s WALL (      28 calls)
     sum_band:loo :      1.50s CPU      1.52s WALL (      28 calls)
     sum_band:buf :      0.26s CPU      0.26s WALL (     896 calls)
     sum_band:ini :      0.29s CPU      0.29s WALL (     896 calls)
     sum_band:cal :      0.02s CPU      0.02s WALL (     896 calls)
     sum_band:bec :      0.34s CPU      0.34s WALL (     896 calls)
     addusdens    :      0.30s CPU      0.30s WALL (      28 calls)
                                        0.30s GPU  (      28 calls)
     addusd:skk   :      0.01s CPU      0.01s WALL (      84 calls)
                                        0.01s GPU  (      84 calls)

     Called by *egterg:
     cdiaghg      :      5.65s CPU      5.79s WALL (    4919 calls)
                                        5.74s GPU  (    4919 calls)
     cegterg:over :      0.37s CPU      0.38s WALL (    4023 calls)
     cegterg:upda :      1.22s CPU      1.23s WALL (    4023 calls)
     cegterg:last :      0.16s CPU      0.16s WALL (    2656 calls)
     h_psi        :      3.70s CPU      3.95s WALL (    4951 calls)
     s_psi        :      1.28s CPU      1.30s WALL (    4951 calls)
     g_psi        :      0.08s CPU      0.08s WALL (    4023 calls)

     Called by h_psi:
     h_psi:calbec :      0.09s CPU      0.12s WALL (    4951 calls)
     vloc_psi     :      2.38s CPU      2.64s WALL (    4951 calls)
                                        2.59s GPU  (    4951 calls)
     add_vuspsi   :      1.08s CPU      1.10s WALL (    4951 calls)

     General routines
     calbec       :      0.10s CPU      0.14s WALL (    6391 calls)
     fft          :      0.04s CPU      0.08s WALL (     400 calls)
                                        0.04s GPU  (     371 calls)
     ffts         :      0.02s CPU      0.02s WALL (      57 calls)
                                        0.00s GPU  (      28 calls)
     fftw         :      0.17s CPU      1.60s WALL (   22462 calls)
                                        1.39s GPU  (   22462 calls)
     interpolate  :      0.08s CPU      0.12s WALL (      29 calls)
 
     Parallel routines

     PAW routines
     PAW_pot      :      2.17s CPU      2.24s WALL (      29 calls)
     PAW_symme    :      0.00s CPU      0.00s WALL (      57 calls)
 
     PWSCF        :     20.22s CPU     20.96s WALL

 
   This run was terminated on:  17: 5:58  29Nov2025            

=------------------------------------------------------------------------------=
   JOB DONE.
=------------------------------------------------------------------------------=
